crystal structure from VMoWS2 with Hexag
   1.00000000000000     
     8.3484156252618575    4.8204036624194746    0.0000000000000000
    -8.3487639138898757    4.8210049953894734    0.0000000000000000
     0.0000000000000000    0.0000000000000000   30.0000000000000000
   V    Mo   W    S 
     3     3     3    18
Direct
  0.6633991701205780  0.6707883130971771 -0.0002906575112170
  0.0073378237996938  0.6704183563524647 -0.0003176192389269
  0.6632862057353851  0.3258937439534492 -0.0002651883508503
  0.3460112194088842  0.6920935394262983 -0.0001157160737845
  0.3459352075633501 -0.0127439960333443 -0.0001170323763669
  0.6413289816072431 -0.0127062984849509 -0.0001217749939943
  0.0130019887094151  0.0263505618467897  0.0002092243727602
  1.0129022500030489  0.3197563419943657  0.0002048401649710
  0.3065336113972036  0.3197660836518298  0.0001939461990226
  0.1109316350586313  0.2220712418086460  0.9421675502381195
  0.2250355296873507  0.1080141779767018  0.0523162457163143
  0.1096186194039092  0.5561034433857863  0.9506809842663978
  0.2250639609524350  0.4502886940699312  0.0522665271111788
  0.1096202733321630  0.8867647425287399  0.9506473399458690
  0.2180951519323028  0.7756981105475509  0.0531886348485348
  0.4464604003459918  0.2236101173937241  0.9506535649998974
  0.5574992414358111  0.1150560713711690  0.0532009483958873
  0.4464467748640415  0.5560906565652105  0.9506948857041898
  0.5546254902051253  0.4439781309811663  0.0472830597151591
  0.4444021916518529  0.8888671518493276  0.9427536392397035
  0.5575310237625168  0.7757118425445625  0.0531929889924625
  0.7770221020258276  0.2235289396066553  0.9505753625626945
  0.8828428501726874  0.1080279629777884  0.0523498368319782
  0.7777886737100151  0.5555405548387318  0.9532838262026091
  0.8892570175468454  0.4440528416384302  0.0473818840737508
  0.7770288457624349  0.8867569810459333  0.9505821017619137
  0.8892082132422373  0.7784361465434391  0.0474004964017167
 
  0.00000000E+00  0.00000000E+00  0.00000000E+00
  0.00000000E+00  0.00000000E+00  0.00000000E+00
  0.00000000E+00  0.00000000E+00  0.00000000E+00
  0.00000000E+00  0.00000000E+00  0.00000000E+00
  0.00000000E+00  0.00000000E+00  0.00000000E+00
  0.00000000E+00  0.00000000E+00  0.00000000E+00
  0.00000000E+00  0.00000000E+00  0.00000000E+00
  0.00000000E+00  0.00000000E+00  0.00000000E+00
  0.00000000E+00  0.00000000E+00  0.00000000E+00
  0.00000000E+00  0.00000000E+00  0.00000000E+00
  0.00000000E+00  0.00000000E+00  0.00000000E+00
  0.00000000E+00  0.00000000E+00  0.00000000E+00
  0.00000000E+00  0.00000000E+00  0.00000000E+00
  0.00000000E+00  0.00000000E+00  0.00000000E+00
  0.00000000E+00  0.00000000E+00  0.00000000E+00
  0.00000000E+00  0.00000000E+00  0.00000000E+00
  0.00000000E+00  0.00000000E+00  0.00000000E+00
  0.00000000E+00  0.00000000E+00  0.00000000E+00
  0.00000000E+00  0.00000000E+00  0.00000000E+00
  0.00000000E+00  0.00000000E+00  0.00000000E+00
  0.00000000E+00  0.00000000E+00  0.00000000E+00
  0.00000000E+00  0.00000000E+00  0.00000000E+00
  0.00000000E+00  0.00000000E+00  0.00000000E+00
  0.00000000E+00  0.00000000E+00  0.00000000E+00
  0.00000000E+00  0.00000000E+00  0.00000000E+00
  0.00000000E+00  0.00000000E+00  0.00000000E+00
  0.00000000E+00  0.00000000E+00  0.00000000E+00
