crystal structure from VMoWS2 with Hexag
   1.00000000000000     
     8.3291439207770583    4.8241513822722508    0.0000000000000000
    -8.3107854930994502    4.7924563607744011    0.0000000000000000
     0.0000000000000000    0.0000000000000000   30.0000000000000000
   V    Mo   W    S 
     3     3     3    18
Direct
  0.9675007736153124  0.3173526406224752  0.0014350384449756
 -0.0396410858934813 -0.0192265651715990  0.0023472236298342
  0.3715249018752793  0.6859887792901209 -0.0023925486546799
  0.6626950580433376  0.0166413025353659  0.0001370352024178
  0.6667430099817735  0.6469680461222478  0.0000841167249497
  0.6616380205874345  0.3326896173344441  0.0002668859136613
 -0.0360666339479811  0.6461800935088601  0.0013364482811847
  0.3701453244817647  0.0220073890650414 -0.0017108658818526
  0.3685109711050805  0.3482211471659889 -0.0014246618277137
  0.1081708310659236  0.2193355676180002  0.9576069809066057
  0.2181540980688512  0.1087879076068009  0.0448334650610393
  0.1134279011012216  0.5542045562438555  0.9562967449627237
  0.2228839498571418  0.4475758772627104  0.0424108806732941
  0.1094756079076133  0.8917855310913321  0.9568767488652187
  0.2239959894857134  0.7759584311251969  0.0428169013454302
  0.4474146622077408  0.2237592472015582  0.9427596869627329
  0.5588895614494397  0.1155430827962966  0.0563860258028289
  0.4466072609726082  0.5581097121016373  0.9450466381238803
  0.5590910470383735  0.4438403720429698  0.0566147240056816
  0.4469947772378701  0.8892060519785289  0.9446486860751552
  0.5591023330072599  0.7794199335394297  0.0505600907093148
  0.7809373476296106  0.2256549686345301  0.9461030615857651
  0.8886951753291287  0.1133676664958084  0.0535112814937139
  0.7737011956319677  0.5502980889830290  0.9438453098193010
  0.8892342290903555  0.4403259905464540  0.0547757197699308
  0.7728776184590705  0.8866454228732539  0.9497935503925303
  0.8855105280485712  0.7775735948632340  0.0550347308120673
 
  0.00000000E+00  0.00000000E+00  0.00000000E+00
  0.00000000E+00  0.00000000E+00  0.00000000E+00
  0.00000000E+00  0.00000000E+00  0.00000000E+00
  0.00000000E+00  0.00000000E+00  0.00000000E+00
  0.00000000E+00  0.00000000E+00  0.00000000E+00
  0.00000000E+00  0.00000000E+00  0.00000000E+00
  0.00000000E+00  0.00000000E+00  0.00000000E+00
  0.00000000E+00  0.00000000E+00  0.00000000E+00
  0.00000000E+00  0.00000000E+00  0.00000000E+00
  0.00000000E+00  0.00000000E+00  0.00000000E+00
  0.00000000E+00  0.00000000E+00  0.00000000E+00
  0.00000000E+00  0.00000000E+00  0.00000000E+00
  0.00000000E+00  0.00000000E+00  0.00000000E+00
  0.00000000E+00  0.00000000E+00  0.00000000E+00
  0.00000000E+00  0.00000000E+00  0.00000000E+00
  0.00000000E+00  0.00000000E+00  0.00000000E+00
  0.00000000E+00  0.00000000E+00  0.00000000E+00
  0.00000000E+00  0.00000000E+00  0.00000000E+00
  0.00000000E+00  0.00000000E+00  0.00000000E+00
  0.00000000E+00  0.00000000E+00  0.00000000E+00
  0.00000000E+00  0.00000000E+00  0.00000000E+00
  0.00000000E+00  0.00000000E+00  0.00000000E+00
  0.00000000E+00  0.00000000E+00  0.00000000E+00
  0.00000000E+00  0.00000000E+00  0.00000000E+00
  0.00000000E+00  0.00000000E+00  0.00000000E+00
  0.00000000E+00  0.00000000E+00  0.00000000E+00
  0.00000000E+00  0.00000000E+00  0.00000000E+00
