crystal structure from VMoWS2 with Hexag
   1.00000000000000     
     8.2959671294616637    4.7855948777252335    0.0000000000000000
    -8.3229514418608570    4.8322547155428897    0.0000000000000000
     0.0000000000000000    0.0000000000000000   30.0000000000000000
   V    Mo   W    S 
     3     3     3    18
Direct
  0.3163296961194521  0.6334715735361078 -0.0018981550588618
  0.0120721936349036  0.0350779122025619  0.0019215256276680
  0.3557255954814677  0.0354986840855425  0.0013720178650378
  0.3185265328045352  0.3399808018497129  0.0004600641726793
  0.6876631471467392  0.0381371280533186  0.0017024263472008
  0.9967277109708872  0.3312537843495337  0.0002000735866656
 -0.0144277587553149  0.6323150221513392 -0.0010710514668302
  0.6861118270040542  0.3346657749962397 -0.0000390412214664
  0.6435907566378343  0.6256726084762257 -0.0026214817934468
  0.1072844516105486  0.2185646334369564  0.9462661282596052
  0.2186197625320452  0.1090920782121022  0.0526186205679461
  0.1157633122428270  0.5561168643891755  0.9450473944717108
  0.2212358358296838  0.4495068294423828  0.0545160557722489
  0.1129380407853751  0.8912545177203360  0.9580548581399255
  0.2266420024175439  0.7795843995769441  0.0438419048016852
  0.4471381692997541  0.2269994355776668  0.9497479693427792
  0.5556637336515482  0.1151192046966155  0.0550418429194509
  0.4355795972383298  0.5528930824050846  0.9439828223148461
  0.5485854707078318  0.4317386431213227  0.0524360911577515
  0.4419925894297424  0.8878783081544765  0.9568730180255156
  0.5534038366685701  0.7763079055628573  0.0428988954752367
  0.7834826174932025  0.2279795536230766  0.9437764050300329
  0.8949493636815110  0.1134677260703943  0.0558294386776244
  0.7773919473646360  0.5503294161698745  0.9434882471362300
  0.8887584615174992  0.4392643892733497  0.0566956831094916
  0.7795718926939528  0.8871139074714072  0.9556308158984916
  0.8868936672278217  0.7789302688729673  0.0432273300407770
 
  0.00000000E+00  0.00000000E+00  0.00000000E+00
  0.00000000E+00  0.00000000E+00  0.00000000E+00
  0.00000000E+00  0.00000000E+00  0.00000000E+00
  0.00000000E+00  0.00000000E+00  0.00000000E+00
  0.00000000E+00  0.00000000E+00  0.00000000E+00
  0.00000000E+00  0.00000000E+00  0.00000000E+00
  0.00000000E+00  0.00000000E+00  0.00000000E+00
  0.00000000E+00  0.00000000E+00  0.00000000E+00
  0.00000000E+00  0.00000000E+00  0.00000000E+00
  0.00000000E+00  0.00000000E+00  0.00000000E+00
  0.00000000E+00  0.00000000E+00  0.00000000E+00
  0.00000000E+00  0.00000000E+00  0.00000000E+00
  0.00000000E+00  0.00000000E+00  0.00000000E+00
  0.00000000E+00  0.00000000E+00  0.00000000E+00
  0.00000000E+00  0.00000000E+00  0.00000000E+00
  0.00000000E+00  0.00000000E+00  0.00000000E+00
  0.00000000E+00  0.00000000E+00  0.00000000E+00
  0.00000000E+00  0.00000000E+00  0.00000000E+00
  0.00000000E+00  0.00000000E+00  0.00000000E+00
  0.00000000E+00  0.00000000E+00  0.00000000E+00
  0.00000000E+00  0.00000000E+00  0.00000000E+00
  0.00000000E+00  0.00000000E+00  0.00000000E+00
  0.00000000E+00  0.00000000E+00  0.00000000E+00
  0.00000000E+00  0.00000000E+00  0.00000000E+00
  0.00000000E+00  0.00000000E+00  0.00000000E+00
  0.00000000E+00  0.00000000E+00  0.00000000E+00
  0.00000000E+00  0.00000000E+00  0.00000000E+00
