crystal structure from VMoWS2 with Hexag
   1.00000000000000     
     8.3024387968690707    4.7980703610682873    0.0000000000000000
    -8.3297438966986839    4.8453749073923484    0.0000000000000000
     0.0000000000000000    0.0000000000000000   30.0000000000000000
   V    Mo   W    S 
     3     3     3    18
Direct
  1.0165376759072622  0.3709475442335637  0.0015572528452096
  0.6864644739329774  0.3683995696776159  0.0016018434790086
  0.3535496194192866  0.3650360578833662  0.0010134293791599
 -0.0150489877762902  0.6731967913620780  0.0004845266332367
  0.6733248652227840  0.6757525050555151  0.0004990215333396
  0.6473884735173313 -0.0373355606851213 -0.0020186410887994
 -0.0290332324368064 -0.0341678980496260 -0.0011224361696066
  0.3247417292889727 -0.0388986569756173 -0.0021402181265328
  0.3544912419214487  0.6753425058731320  0.0002524426282816
  0.1084677057663127  0.2249096087778444  0.9574882293523066
  0.2231280958492070  0.1106027429322270  0.0416672756298230
  0.1130432373678862  0.5614661380084336  0.9499800932599586
  0.2242641762384567  0.4432623941510486  0.0522082736150447
  0.1085801598345896  0.8896990336794995  0.9451298164256755
  0.2184387047837199  0.7663967622654259  0.0528837935971685
  0.4475156864860244  0.2229086970674646  0.9564671696467348
  0.5568623228488988  0.1133427001243294  0.0442331905800906
  0.4452009846207581  0.5530810733697752  0.9463631225351287
  0.5554306951677286  0.4420633566718912  0.0528929844920142
  0.4428678132567510  0.8798956544452828  0.9418308962093741
  0.5548087665617043  0.7711951201658375  0.0564887822479607
  0.7786602336839170  0.2250260213781140  0.9574091366668647
  0.8880611433497326  0.1153874154121619  0.0453146142124711
  0.7749234594945321  0.5540838693477553  0.9465561002010506
  0.8870991006350643  0.4461430648770939  0.0535455574071781
  0.7745974809152956  0.8845704731637238  0.9423605314784622
  0.8838488275794426  0.7759074692647593  0.0570531105293942
 
  0.00000000E+00  0.00000000E+00  0.00000000E+00
  0.00000000E+00  0.00000000E+00  0.00000000E+00
  0.00000000E+00  0.00000000E+00  0.00000000E+00
  0.00000000E+00  0.00000000E+00  0.00000000E+00
  0.00000000E+00  0.00000000E+00  0.00000000E+00
  0.00000000E+00  0.00000000E+00  0.00000000E+00
  0.00000000E+00  0.00000000E+00  0.00000000E+00
  0.00000000E+00  0.00000000E+00  0.00000000E+00
  0.00000000E+00  0.00000000E+00  0.00000000E+00
  0.00000000E+00  0.00000000E+00  0.00000000E+00
  0.00000000E+00  0.00000000E+00  0.00000000E+00
  0.00000000E+00  0.00000000E+00  0.00000000E+00
  0.00000000E+00  0.00000000E+00  0.00000000E+00
  0.00000000E+00  0.00000000E+00  0.00000000E+00
  0.00000000E+00  0.00000000E+00  0.00000000E+00
  0.00000000E+00  0.00000000E+00  0.00000000E+00
  0.00000000E+00  0.00000000E+00  0.00000000E+00
  0.00000000E+00  0.00000000E+00  0.00000000E+00
  0.00000000E+00  0.00000000E+00  0.00000000E+00
  0.00000000E+00  0.00000000E+00  0.00000000E+00
  0.00000000E+00  0.00000000E+00  0.00000000E+00
  0.00000000E+00  0.00000000E+00  0.00000000E+00
  0.00000000E+00  0.00000000E+00  0.00000000E+00
  0.00000000E+00  0.00000000E+00  0.00000000E+00
  0.00000000E+00  0.00000000E+00  0.00000000E+00
  0.00000000E+00  0.00000000E+00  0.00000000E+00
  0.00000000E+00  0.00000000E+00  0.00000000E+00
