crystal structure from VMoWS2 with Hexag
   1.00000000000000     
     8.3337534975306600    4.8251697753021441    0.0000000000000000
    -8.3519868896717799    4.8570385713609872    0.0000000000000000
     0.0000000000000000    0.0000000000000000   30.0000000000000000
   V    Mo   W    S 
     3     3     3    18
Direct
  0.3496724502336874  0.3695822444482494  0.0016651284040077
  1.0220854469405793  0.3723477568021877  0.0017811234405758
  0.6515326047086466  0.2940274648097226 -0.0029060985622030
  0.0327201423585238  0.6879227655717399  0.0008445725883639
  0.6484406788121354 -0.0265946388357696 -0.0008439139472790
  0.3368487987130134  0.6780950571016479  0.0005969350490325
 -0.0328253279535997 -0.0343374335711404 -0.0018023282401024
  0.3405260538634349 -0.0229710551557319 -0.0001575911964301
  0.6563372473449905  0.6843190931222650  0.0002918936424269
  0.1097532877429031  0.2266018768266408  0.9566501757944923
  0.2215981459985920  0.1138518944023529  0.0409043433097440
  0.1140687201059559  0.5599103779956150  0.9470516573697210
  0.2220118150492328  0.4473387025222810  0.0526260837757220
  0.1162771719778714  0.8950730871095600  0.9466607063235477
  0.2284312410413006  0.7807099877451036  0.0574545762969483
  0.4396235936944792  0.2219394010993909  0.9526324685202350
  0.5565349417817401  0.1067728114429948  0.0525796241746977
  0.4435332106495565  0.5568337612087690  0.9468276441594218
  0.5559235197450595  0.4412921765050384  0.0480792258340886
  0.4439164674346393  0.8861835601042032  0.9428176275149879
  0.5511459101088250  0.7747461760780403  0.0568660199029408
  0.7855495532680206  0.2211487093851359  0.9517589388275863
  0.8925549882219735  0.1186726480154049  0.0446820170759709
  0.7752759982830359  0.5481338490574356  0.9594861386573565
  0.8839648762650508  0.4433478059468923  0.0478651162009167
  0.7701117742639242  0.8826024161310222  0.9423955318205496
  0.8826011427834118  0.7706639576085236  0.0531922824626741
 
  0.00000000E+00  0.00000000E+00  0.00000000E+00
  0.00000000E+00  0.00000000E+00  0.00000000E+00
  0.00000000E+00  0.00000000E+00  0.00000000E+00
  0.00000000E+00  0.00000000E+00  0.00000000E+00
  0.00000000E+00  0.00000000E+00  0.00000000E+00
  0.00000000E+00  0.00000000E+00  0.00000000E+00
  0.00000000E+00  0.00000000E+00  0.00000000E+00
  0.00000000E+00  0.00000000E+00  0.00000000E+00
  0.00000000E+00  0.00000000E+00  0.00000000E+00
  0.00000000E+00  0.00000000E+00  0.00000000E+00
  0.00000000E+00  0.00000000E+00  0.00000000E+00
  0.00000000E+00  0.00000000E+00  0.00000000E+00
  0.00000000E+00  0.00000000E+00  0.00000000E+00
  0.00000000E+00  0.00000000E+00  0.00000000E+00
  0.00000000E+00  0.00000000E+00  0.00000000E+00
  0.00000000E+00  0.00000000E+00  0.00000000E+00
  0.00000000E+00  0.00000000E+00  0.00000000E+00
  0.00000000E+00  0.00000000E+00  0.00000000E+00
  0.00000000E+00  0.00000000E+00  0.00000000E+00
  0.00000000E+00  0.00000000E+00  0.00000000E+00
  0.00000000E+00  0.00000000E+00  0.00000000E+00
  0.00000000E+00  0.00000000E+00  0.00000000E+00
  0.00000000E+00  0.00000000E+00  0.00000000E+00
  0.00000000E+00  0.00000000E+00  0.00000000E+00
  0.00000000E+00  0.00000000E+00  0.00000000E+00
  0.00000000E+00  0.00000000E+00  0.00000000E+00
  0.00000000E+00  0.00000000E+00  0.00000000E+00
