crystal structure from VMoWS2 with Hexag
   1.00000000000000     
     8.3478850580173045    4.7995594606463650    0.0000000000000000
    -8.3511464689447266    4.8051556860732418    0.0000000000000000
     0.0000000000000000    0.0000000000000000   30.0000000000000000
   V    Mo   W    S 
     3     3     3    18
Direct
  0.6868922149930705 -0.0113577629898554  0.0012674270675503
 -0.0183243952692619  0.6401001882412261 -0.0007833507851627
  0.3284431239923687  0.0270505095525268 -0.0004775705202364
  1.0181463778142110  0.3241557593991908  0.0007297903473261
  0.0051099818930859  0.0222718812667255 -0.0008742861586045
  0.3136225070961013  0.3233861173810361 -0.0003928350527294
  0.3322277099354064  0.6379638991957257  0.0007088240646597
  0.6490576638811394  0.3552380332821217 -0.0013287781992065
  0.6835481688102646  0.6753407180775616  0.0006225014522526
  0.1113871512000880  0.2232962961106777  0.9427829815030793
  0.2194989522652105  0.1105129397200925  0.0539554718151705
  0.1104509625002277  0.5514112478322808  0.9495110772571239
  0.2189602869182082  0.4386075649774732  0.0571526168309341
  0.1129968639952863  0.8862338084963741  0.9524081866309930
  0.2237233992325398  0.7802657162975110  0.0434224133913329
  0.4388864244202493  0.2225167792619160  0.9454507473750248
  0.5556617100074042  0.1126131322148746  0.0447535429334461
  0.4496113489236682  0.5545207457584718  0.9474174617527505
  0.5493399869169594  0.4521085553862340  0.0530110026835109
  0.4437716217142034  0.8895716499023809  0.9579489186306609
  0.5601103845499109  0.7810186639917394  0.0521998594248081
  0.7702092315623574  0.2191383751758349  0.9562411628351130
  0.8848825352003581  0.1082349041161689  0.0548287298489398
  0.7860686920431132  0.5637716653092911  0.9449871921594858
  0.8810413174788652  0.4376432650454035  0.0488230197313128
  0.7801297426877277  0.8926958841964414  0.9466957410907907
  0.9027604886742197  0.7799039162781535  0.0489380510896585
 
  0.00000000E+00  0.00000000E+00  0.00000000E+00
  0.00000000E+00  0.00000000E+00  0.00000000E+00
  0.00000000E+00  0.00000000E+00  0.00000000E+00
  0.00000000E+00  0.00000000E+00  0.00000000E+00
  0.00000000E+00  0.00000000E+00  0.00000000E+00
  0.00000000E+00  0.00000000E+00  0.00000000E+00
  0.00000000E+00  0.00000000E+00  0.00000000E+00
  0.00000000E+00  0.00000000E+00  0.00000000E+00
  0.00000000E+00  0.00000000E+00  0.00000000E+00
  0.00000000E+00  0.00000000E+00  0.00000000E+00
  0.00000000E+00  0.00000000E+00  0.00000000E+00
  0.00000000E+00  0.00000000E+00  0.00000000E+00
  0.00000000E+00  0.00000000E+00  0.00000000E+00
  0.00000000E+00  0.00000000E+00  0.00000000E+00
  0.00000000E+00  0.00000000E+00  0.00000000E+00
  0.00000000E+00  0.00000000E+00  0.00000000E+00
  0.00000000E+00  0.00000000E+00  0.00000000E+00
  0.00000000E+00  0.00000000E+00  0.00000000E+00
  0.00000000E+00  0.00000000E+00  0.00000000E+00
  0.00000000E+00  0.00000000E+00  0.00000000E+00
  0.00000000E+00  0.00000000E+00  0.00000000E+00
  0.00000000E+00  0.00000000E+00  0.00000000E+00
  0.00000000E+00  0.00000000E+00  0.00000000E+00
  0.00000000E+00  0.00000000E+00  0.00000000E+00
  0.00000000E+00  0.00000000E+00  0.00000000E+00
  0.00000000E+00  0.00000000E+00  0.00000000E+00
  0.00000000E+00  0.00000000E+00  0.00000000E+00
