crystal structure from VMoWS2 with Hexag
   1.00000000000000     
     8.3733964658140732    4.8456669802980823    0.0000000000000000
    -8.3713025533886949    4.8421355404047590    0.0000000000000000
     0.0000000000000000    0.0000000000000000   30.0000000000000000
   V    Mo   W    S 
     3     3     3    18
Direct
  0.6845737703464102  0.3681946454382402  0.0006980504296930
  0.3582025340956445  0.3576980931207521 -0.0002339772450816
  0.3699626408058079  0.6849204360452078 -0.0006059411274092
  0.6726792448896252  0.6742001227823832 -0.0000078499334338
 -0.0211996916988818 -0.0198626378004620 -0.0000529417804825
  0.6862642198149583 -0.0141529115480257  0.0002303074703980
  0.9831882092067845  0.2934192121568225 -0.0016645448921189
 -0.0138756739134895  0.6854986511262291 -0.0000667227769285
  0.2939943667627944 -0.0165233558847078  0.0017813446689052
  0.1191320711207525  0.2183269591599305  0.9503852082480254
  0.2188510214884783  0.1203448603161019  0.0493551657427338
  0.1132451743131274  0.5542320786260674  0.9597205987122768
  0.2275238198852659  0.4488106367900235  0.0458659798196803
  0.1036178122334850  0.8866459933924028  0.9440110827134958
  0.2181179969609951  0.7695072591084020  0.0498006868001241
  0.4484543326831719  0.2267672493345083  0.9537945952500457
  0.5534355019348546  0.1132067767519754  0.0403983128713682
  0.4437611818196592  0.5581282277292493  0.9483223311488083
  0.5572849772625623  0.4433151210554595  0.0513324913397326
  0.4432086729699364  0.8896194939231495  0.9516363423462293
  0.5548489291648981  0.7759423954197653  0.0545440278058404
  0.7702651789475894  0.2187584824156526  0.9502959748870052
  0.8878088602839049  0.1045311101920009  0.0561895477736394
  0.7763725836234617  0.5544871503112442  0.9457481362787427
  0.8895761379328898  0.4434505848280604  0.0485357431044737
  0.7758102682949082  0.8828411333674450  0.9431359139205507
  0.8831103122073850  0.7759066853196963  0.0568500356236770
 
  0.00000000E+00  0.00000000E+00  0.00000000E+00
  0.00000000E+00  0.00000000E+00  0.00000000E+00
  0.00000000E+00  0.00000000E+00  0.00000000E+00
  0.00000000E+00  0.00000000E+00  0.00000000E+00
  0.00000000E+00  0.00000000E+00  0.00000000E+00
  0.00000000E+00  0.00000000E+00  0.00000000E+00
  0.00000000E+00  0.00000000E+00  0.00000000E+00
  0.00000000E+00  0.00000000E+00  0.00000000E+00
  0.00000000E+00  0.00000000E+00  0.00000000E+00
  0.00000000E+00  0.00000000E+00  0.00000000E+00
  0.00000000E+00  0.00000000E+00  0.00000000E+00
  0.00000000E+00  0.00000000E+00  0.00000000E+00
  0.00000000E+00  0.00000000E+00  0.00000000E+00
  0.00000000E+00  0.00000000E+00  0.00000000E+00
  0.00000000E+00  0.00000000E+00  0.00000000E+00
  0.00000000E+00  0.00000000E+00  0.00000000E+00
  0.00000000E+00  0.00000000E+00  0.00000000E+00
  0.00000000E+00  0.00000000E+00  0.00000000E+00
  0.00000000E+00  0.00000000E+00  0.00000000E+00
  0.00000000E+00  0.00000000E+00  0.00000000E+00
  0.00000000E+00  0.00000000E+00  0.00000000E+00
  0.00000000E+00  0.00000000E+00  0.00000000E+00
  0.00000000E+00  0.00000000E+00  0.00000000E+00
  0.00000000E+00  0.00000000E+00  0.00000000E+00
  0.00000000E+00  0.00000000E+00  0.00000000E+00
  0.00000000E+00  0.00000000E+00  0.00000000E+00
  0.00000000E+00  0.00000000E+00  0.00000000E+00
