crystal structure from VMoWS2 with Hexag
   1.00000000000000     
     8.3283247662014830    4.8459638901319497    0.0000000000000000
    -8.2994346511663899    4.7959212327886389    0.0000000000000000
     0.0000000000000000    0.0000000000000000   30.0000000000000000
   V    Mo   W    S 
     3     3     3    18
Direct
  0.7014426780538900  0.0194629124758408 -0.0014932103967393
  0.7036010842988909  0.3495154209236417 -0.0013533318116204
  0.6985361763440326  0.6866142155494519 -0.0010127416209212
  1.0066138369766238  0.3185255127023330 -0.0005124763113315
  0.2959953979026244 -0.0193182690332344  0.0019620771536599
  0.0092677327679459  0.0069039018586317 -0.0005060089170149
  0.0090099620677767  0.6876380028232877 -0.0003213379599291
  0.2992997766794631  0.3043377873688525  0.0010689043515777
  0.2948093471500511  0.6584538856327621  0.0020224881690002
  0.1092274596001670  0.2173250167350897  0.9429297931216997
  0.2179571996034597  0.1080116395259668  0.0576010629729732
  0.0999811853796471  0.5517875575011031  0.9470086570140854
  0.2230672853542020  0.4421036231265251  0.0547660614131838
  0.1044315335273380  0.8881559851718911  0.9435067462515979
  0.2133104308132446  0.7760931199378845  0.0581049895075459
  0.4484166468737502  0.2212453404531729  0.9545770421659889
  0.5579475717906967  0.1118227603218174  0.0427276586935256
  0.4442164436491806  0.5565648120093115  0.9582871673316095
  0.5580235331974747  0.4420578842702190  0.0426456566482822
  0.4467015055145706  0.8903845315015168  0.9556280429515644
  0.5562548009902990  0.7807110467565012  0.0436014889294354
  0.7791103558860626  0.2204872759303142  0.9466436457394558
  0.8875569152538219  0.1084246115458902  0.0534493728564095
  0.7765975597267921  0.5572368176674527  0.9478609280283292
  0.8946274483114958  0.4462732053962864  0.0500623604589676
  0.7754926400401103  0.8888878734172325  0.9471658035245559
  0.8867179456833642  0.7785079819078368  0.0535790589341059
 
  0.00000000E+00  0.00000000E+00  0.00000000E+00
  0.00000000E+00  0.00000000E+00  0.00000000E+00
  0.00000000E+00  0.00000000E+00  0.00000000E+00
  0.00000000E+00  0.00000000E+00  0.00000000E+00
  0.00000000E+00  0.00000000E+00  0.00000000E+00
  0.00000000E+00  0.00000000E+00  0.00000000E+00
  0.00000000E+00  0.00000000E+00  0.00000000E+00
  0.00000000E+00  0.00000000E+00  0.00000000E+00
  0.00000000E+00  0.00000000E+00  0.00000000E+00
  0.00000000E+00  0.00000000E+00  0.00000000E+00
  0.00000000E+00  0.00000000E+00  0.00000000E+00
  0.00000000E+00  0.00000000E+00  0.00000000E+00
  0.00000000E+00  0.00000000E+00  0.00000000E+00
  0.00000000E+00  0.00000000E+00  0.00000000E+00
  0.00000000E+00  0.00000000E+00  0.00000000E+00
  0.00000000E+00  0.00000000E+00  0.00000000E+00
  0.00000000E+00  0.00000000E+00  0.00000000E+00
  0.00000000E+00  0.00000000E+00  0.00000000E+00
  0.00000000E+00  0.00000000E+00  0.00000000E+00
  0.00000000E+00  0.00000000E+00  0.00000000E+00
  0.00000000E+00  0.00000000E+00  0.00000000E+00
  0.00000000E+00  0.00000000E+00  0.00000000E+00
  0.00000000E+00  0.00000000E+00  0.00000000E+00
  0.00000000E+00  0.00000000E+00  0.00000000E+00
  0.00000000E+00  0.00000000E+00  0.00000000E+00
  0.00000000E+00  0.00000000E+00  0.00000000E+00
  0.00000000E+00  0.00000000E+00  0.00000000E+00
