crystal structure from VMoWS2 with Hexag
   1.00000000000000     
     8.2896564988326489    4.7739973406891414    0.0000000000000000
    -8.3049004292427444    4.8004088103809375    0.0000000000000000
     0.0000000000000000    0.0000000000000000   30.0000000000000000
   V    Mo   W    S 
     3     3     3    18
Direct
  0.6731121350328731  0.0048241375393274  0.0005410854814858
  0.3269966360030392  0.6573738310954359  0.0002746238544899
  0.3259388353327930  0.0002589506114601  0.0003485800597245
  0.6697466402330834  0.6455286889590118 -0.0002327989367027
 -0.0207581198166279  0.6544567986166785 -0.0004308926488010
  0.3407351674044449  0.3388722658140415  0.0001201781738927
  0.0048703078071695  0.0018776635850952 -0.0002301012122591
  1.0040648173960680  0.3383210501943361 -0.0001450698875548
  0.6731528298025088  0.3563553864340049 -0.0000722045109064
  0.1124743451495434  0.2236471338146064  0.9481410023773928
  0.2245706881446900  0.1085825126459848  0.0521600019367144
  0.1159178261668850  0.5589208070432333  0.9482848020898580
  0.2247450587399445  0.4502127590532151  0.0524089456827936
  0.1151472789330716  0.8898876543252842  0.9487066512560945
  0.2219065565772329  0.7775397116507482  0.0481205297905389
  0.4451972721428474  0.2182710963024303  0.9490704869184607
  0.5545282346011191  0.1114591004053210  0.0478166004517172
  0.4437580004177292  0.5600122737976265  0.9484137533263175
  0.5552296499987098  0.4424500362855880  0.0556850251449676
  0.4439083217182779  0.8889144249411433  0.9529102700268732
  0.5549580829350567  0.7771182844367671  0.0472220354899334
  0.7750329340522685  0.2205629801789095  0.9498881390915419
  0.8872510977930198  0.1108498749608700  0.0514212284416981
  0.7766914866889031  0.5535673436339488  0.9421852171549443
  0.8870328302666439  0.4426153839879779  0.0538465838963381
  0.7744550524090842  0.8882276559196282  0.9505887505751976
  0.8875504875065970  0.7775066472448876  0.0529564751752461
 
  0.00000000E+00  0.00000000E+00  0.00000000E+00
  0.00000000E+00  0.00000000E+00  0.00000000E+00
  0.00000000E+00  0.00000000E+00  0.00000000E+00
  0.00000000E+00  0.00000000E+00  0.00000000E+00
  0.00000000E+00  0.00000000E+00  0.00000000E+00
  0.00000000E+00  0.00000000E+00  0.00000000E+00
  0.00000000E+00  0.00000000E+00  0.00000000E+00
  0.00000000E+00  0.00000000E+00  0.00000000E+00
  0.00000000E+00  0.00000000E+00  0.00000000E+00
  0.00000000E+00  0.00000000E+00  0.00000000E+00
  0.00000000E+00  0.00000000E+00  0.00000000E+00
  0.00000000E+00  0.00000000E+00  0.00000000E+00
  0.00000000E+00  0.00000000E+00  0.00000000E+00
  0.00000000E+00  0.00000000E+00  0.00000000E+00
  0.00000000E+00  0.00000000E+00  0.00000000E+00
  0.00000000E+00  0.00000000E+00  0.00000000E+00
  0.00000000E+00  0.00000000E+00  0.00000000E+00
  0.00000000E+00  0.00000000E+00  0.00000000E+00
  0.00000000E+00  0.00000000E+00  0.00000000E+00
  0.00000000E+00  0.00000000E+00  0.00000000E+00
  0.00000000E+00  0.00000000E+00  0.00000000E+00
  0.00000000E+00  0.00000000E+00  0.00000000E+00
  0.00000000E+00  0.00000000E+00  0.00000000E+00
  0.00000000E+00  0.00000000E+00  0.00000000E+00
  0.00000000E+00  0.00000000E+00  0.00000000E+00
  0.00000000E+00  0.00000000E+00  0.00000000E+00
  0.00000000E+00  0.00000000E+00  0.00000000E+00
