crystal structure from VMoWS2 with Hexag
   1.00000000000000     
     8.3318062738670573    4.7859881164606275    0.0000000000000000
    -8.3305575872300732    4.7838110883962939    0.0000000000000000
     0.0000000000000000    0.0000000000000000   30.0000000000000000
   V    Mo   W    S 
     3     3     3    18
Direct
  0.6503678943778897  0.0160539405262495 -0.0018118542347554
  0.0177538275888255 -0.0167221561560823  0.0019700515866809
  0.6833560763848332  0.6487180093283265  0.0019521614498606
  0.0057428597598823  0.6633440365643734  0.0003541880515728
  0.6603371818308332  0.3273012013015933  0.0001667140564631
  0.3379587161960242  0.0048879176781713  0.0001671358140651
  0.9824841282446563  0.3550200725124138 -0.0024222480039382
  0.3531324794243574  0.3131948790365986  0.0021148643059744
  0.3117876814090970  0.6840713132905665 -0.0023963970010640
  0.1100645311044337  0.2204838583817002  0.9563818272532603
  0.2204369571434026  0.1063850378190049  0.0556366306647416
  0.1071847408646816  0.5596714914305326  0.9418704930076349
  0.2226123613703498  0.4438601166483255  0.0443420947618028
  0.1099204254512950  0.8902877964623968  0.9474232563952033
  0.2209228677872774  0.7813259694508293  0.0550145421445400
  0.4467391702148868  0.2195141672985841  0.9444968992788649
  0.5577273847406768  0.1085962124804619  0.0540155882723776
  0.4460742658338234  0.5563945852812539  0.9564069005436571
  0.5600312200184634  0.4458679411813682  0.0556303216469074
  0.4478908643586242  0.8933894611270016  0.9447437550240516
  0.5565836139130449  0.7789192259255251  0.0427200618635083
  0.7730548447518999  0.2186977256359155  0.9447612687457232
  0.8876109513367866  0.1100871903266009  0.0426742252120787
  0.7764285526642947  0.5564844866028985  0.9476193046322730
  0.8851529598029763  0.4460205543758013  0.0547875965340770
  0.7784740709395553  0.8880187214795178  0.9580908799490738
  0.8883838259241086  0.7783406974876456  0.0532896372453572
 
  0.00000000E+00  0.00000000E+00  0.00000000E+00
  0.00000000E+00  0.00000000E+00  0.00000000E+00
  0.00000000E+00  0.00000000E+00  0.00000000E+00
  0.00000000E+00  0.00000000E+00  0.00000000E+00
  0.00000000E+00  0.00000000E+00  0.00000000E+00
  0.00000000E+00  0.00000000E+00  0.00000000E+00
  0.00000000E+00  0.00000000E+00  0.00000000E+00
  0.00000000E+00  0.00000000E+00  0.00000000E+00
  0.00000000E+00  0.00000000E+00  0.00000000E+00
  0.00000000E+00  0.00000000E+00  0.00000000E+00
  0.00000000E+00  0.00000000E+00  0.00000000E+00
  0.00000000E+00  0.00000000E+00  0.00000000E+00
  0.00000000E+00  0.00000000E+00  0.00000000E+00
  0.00000000E+00  0.00000000E+00  0.00000000E+00
  0.00000000E+00  0.00000000E+00  0.00000000E+00
  0.00000000E+00  0.00000000E+00  0.00000000E+00
  0.00000000E+00  0.00000000E+00  0.00000000E+00
  0.00000000E+00  0.00000000E+00  0.00000000E+00
  0.00000000E+00  0.00000000E+00  0.00000000E+00
  0.00000000E+00  0.00000000E+00  0.00000000E+00
  0.00000000E+00  0.00000000E+00  0.00000000E+00
  0.00000000E+00  0.00000000E+00  0.00000000E+00
  0.00000000E+00  0.00000000E+00  0.00000000E+00
  0.00000000E+00  0.00000000E+00  0.00000000E+00
  0.00000000E+00  0.00000000E+00  0.00000000E+00
  0.00000000E+00  0.00000000E+00  0.00000000E+00
  0.00000000E+00  0.00000000E+00  0.00000000E+00
