crystal structure from VMoWS2 with Hexag
   1.00000000000000     
     8.3331440170795528    4.8252206459368612    0.0000000000000000
    -8.3172185689049147    4.7975396988062613    0.0000000000000000
     0.0000000000000000    0.0000000000000000   30.0000000000000000
   V    Mo   W    S 
     3     3     3    18
Direct
  0.7016086834099260  0.3470325174178583 -0.0013886685351142
  0.7042683387374183  0.6892130044026695 -0.0017060292245708
  0.0077447106145552  0.6650122981304309 -0.0005322746426654
  0.0019636194475259  0.0176986350838996 -0.0001742176830245
  1.0019828708553313  0.3222190961912252 -0.0000822164946273
  0.7072092707367630  0.0200822311162503 -0.0014363113802098
  0.2943100130945757 -0.0240689899565042  0.0022261036078181
  0.2982522151007152  0.3195437769181079  0.0006862278996711
  0.2947318030103827  0.6473287411397135  0.0022095007812012
  0.1070467565042783  0.2218022916029294  0.9425953705410690
  0.2209314669984941  0.1118566226930097  0.0556945796106489
  0.1008473486190608  0.5526415487522736  0.9465052465884932
  0.2186676325615353  0.4417893829757706  0.0567631412767353
  0.0997680554822248  0.8800056260792283  0.9474908321490351
  0.2090904534214775  0.7695993330080004  0.0566562216720531
  0.4452532866195519  0.2210562949664201  0.9566290764991973
  0.5558058713394390  0.1123386712431119  0.0443347394993664
  0.4462130260683189  0.5586670270466575  0.9553004990673517
  0.5577443086848537  0.4469493746059360  0.0417830818617059
  0.4454218037694388  0.8886318900841276  0.9563450455933659
  0.5559424004190497  0.7756258749743241  0.0439261044661105
  0.7801985550518374  0.2266357997155997  0.9450399000685912
  0.8943931729175790  0.1145554099498874  0.0566505142453011
  0.7815930327049678  0.5568052732476240  0.9484316665383522
  0.8910811818693744  0.4479685893941949  0.0511831227371850
  0.7823143228605068  0.8886782131803357  0.9448092694785341
  0.8938302525377824  0.7785459195144766  0.0500593729784148
 
  0.00000000E+00  0.00000000E+00  0.00000000E+00
  0.00000000E+00  0.00000000E+00  0.00000000E+00
  0.00000000E+00  0.00000000E+00  0.00000000E+00
  0.00000000E+00  0.00000000E+00  0.00000000E+00
  0.00000000E+00  0.00000000E+00  0.00000000E+00
  0.00000000E+00  0.00000000E+00  0.00000000E+00
  0.00000000E+00  0.00000000E+00  0.00000000E+00
  0.00000000E+00  0.00000000E+00  0.00000000E+00
  0.00000000E+00  0.00000000E+00  0.00000000E+00
  0.00000000E+00  0.00000000E+00  0.00000000E+00
  0.00000000E+00  0.00000000E+00  0.00000000E+00
  0.00000000E+00  0.00000000E+00  0.00000000E+00
  0.00000000E+00  0.00000000E+00  0.00000000E+00
  0.00000000E+00  0.00000000E+00  0.00000000E+00
  0.00000000E+00  0.00000000E+00  0.00000000E+00
  0.00000000E+00  0.00000000E+00  0.00000000E+00
  0.00000000E+00  0.00000000E+00  0.00000000E+00
  0.00000000E+00  0.00000000E+00  0.00000000E+00
  0.00000000E+00  0.00000000E+00  0.00000000E+00
  0.00000000E+00  0.00000000E+00  0.00000000E+00
  0.00000000E+00  0.00000000E+00  0.00000000E+00
  0.00000000E+00  0.00000000E+00  0.00000000E+00
  0.00000000E+00  0.00000000E+00  0.00000000E+00
  0.00000000E+00  0.00000000E+00  0.00000000E+00
  0.00000000E+00  0.00000000E+00  0.00000000E+00
  0.00000000E+00  0.00000000E+00  0.00000000E+00
  0.00000000E+00  0.00000000E+00  0.00000000E+00
