crystal structure from VMoWS2 with Hexag
   1.00000000000000     
     8.2887691761313640    4.7877805615491118    0.0000000000000000
    -8.3088490210172505    4.8225474006024687    0.0000000000000000
     0.0000000000000000    0.0000000000000000   30.0000000000000000
   V    Mo   W    S 
     3     3     3    18
Direct
  0.3150573974259208 -0.0347827497601797 -0.0019837276712756
  0.6828778135233238  0.3657124677086031  0.0017889161918922
  0.6498278946317944 -0.0348079992017135 -0.0019283103937801
  0.3272852788647344  0.6576744402006255 -0.0003208264547979
  0.6732238766699810  0.6667889049281128 -0.0002087238439343
 -0.0049063766816817  0.6668847129834051 -0.0001991604754013
 -0.0198809260012943 -0.0400258073579130 -0.0021137618253581
  1.0214099364392719  0.3723184102181914  0.0024122147496944
  0.3509065647969515  0.3726051931080311  0.0024435057957644
  0.1107076604732010  0.2213491627296887  0.9557114565599033
  0.2231466599401875  0.1103366888732378  0.0436182661463548
  0.1123581635749794  0.5604108221914081  0.9450012129024946
  0.2260383595679649  0.4524402036097520  0.0581324703025749
  0.1126751430173738  0.8858493112326334  0.9443179654248374
  0.2230371232897979  0.7801791622703143  0.0525944858014177
  0.4455153496157321  0.2223049505083069  0.9573715453041236
  0.5546237437682860  0.1094613355806186  0.0418354041851640
  0.4480951961025749  0.5609700568310834  0.9452668430057594
  0.5602304867770079  0.4455461499905132  0.0552643961781740
  0.4448313264968092  0.8900121185808697  0.9467363783272272
  0.5568574389331058  0.7798147994810775  0.0523566342540867
  0.7766713147463828  0.2222668649233484  0.9573047146427452
  0.8871811869558471  0.1102643807642720  0.0435827322913026
  0.7755189396781992  0.5508167705793565  0.9458807374294215
  0.8852296684331690  0.4453614020606136  0.0552690665008491
  0.7732429631077997  0.8857676734641428  0.9443771785943935
  0.8864522692895611  0.7726950269791734  0.0554882852763572
 
  0.00000000E+00  0.00000000E+00  0.00000000E+00
  0.00000000E+00  0.00000000E+00  0.00000000E+00
  0.00000000E+00  0.00000000E+00  0.00000000E+00
  0.00000000E+00  0.00000000E+00  0.00000000E+00
  0.00000000E+00  0.00000000E+00  0.00000000E+00
  0.00000000E+00  0.00000000E+00  0.00000000E+00
  0.00000000E+00  0.00000000E+00  0.00000000E+00
  0.00000000E+00  0.00000000E+00  0.00000000E+00
  0.00000000E+00  0.00000000E+00  0.00000000E+00
  0.00000000E+00  0.00000000E+00  0.00000000E+00
  0.00000000E+00  0.00000000E+00  0.00000000E+00
  0.00000000E+00  0.00000000E+00  0.00000000E+00
  0.00000000E+00  0.00000000E+00  0.00000000E+00
  0.00000000E+00  0.00000000E+00  0.00000000E+00
  0.00000000E+00  0.00000000E+00  0.00000000E+00
  0.00000000E+00  0.00000000E+00  0.00000000E+00
  0.00000000E+00  0.00000000E+00  0.00000000E+00
  0.00000000E+00  0.00000000E+00  0.00000000E+00
  0.00000000E+00  0.00000000E+00  0.00000000E+00
  0.00000000E+00  0.00000000E+00  0.00000000E+00
  0.00000000E+00  0.00000000E+00  0.00000000E+00
  0.00000000E+00  0.00000000E+00  0.00000000E+00
  0.00000000E+00  0.00000000E+00  0.00000000E+00
  0.00000000E+00  0.00000000E+00  0.00000000E+00
  0.00000000E+00  0.00000000E+00  0.00000000E+00
  0.00000000E+00  0.00000000E+00  0.00000000E+00
  0.00000000E+00  0.00000000E+00  0.00000000E+00
