crystal structure from VMoWS2 with Hexag
   1.00000000000000     
     8.3203494677695389    4.8024702332797435    0.0000000000000000
    -8.3463529475635063    4.8474949956817879    0.0000000000000000
     0.0000000000000000    0.0000000000000000   30.0000000000000000
   V    Mo   W    S 
     3     3     3    18
Direct
  0.3158272858062585  0.2978119884224731 -0.0015102358584571
  1.0101358937182070  0.3343327283307808  0.0011720539167560
  0.6565844938683590  0.3313527295977358  0.0013453525327104
  0.3174843165505792 -0.0147764654868821 -0.0004415192410203
  0.0152773660660650  0.6961088133786993  0.0008624797023039
 -0.0016057361947159 -0.0147494947623330 -0.0004577717022096
  0.3194040520938126  0.6870276399977672  0.0000981287085053
  0.6586882780810785 -0.0208287656974553 -0.0006111756144001
  0.7013373357810734  0.6877529323312876  0.0001044253581684
  0.1107603874814037  0.2234866131988816  0.9489355971966850
  0.2222870525580431  0.1116643098570877  0.0530304818120321
  0.1068882086986600  0.5572504303836221  0.9495288751770877
  0.2245510953695620  0.4414908783282825  0.0472599835475551
  0.1127565399567667  0.8934205619554016  0.9433634574670259
  0.2216721357445252  0.7818513243045024  0.0573494634895019
  0.4453265515837881  0.2229505538432709  0.9488914482581341
  0.5580674210070339  0.1123128837580097  0.0482037695381500
  0.4433929315091808  0.5532366683713150  0.9596766834028150
  0.5499709548463374  0.4413077844096974  0.0469955143726282
  0.4430787634169611  0.8908544251871127  0.9454953081769191
  0.5525525970341578  0.7715509337037136  0.0517759187754766
  0.7786383429343308  0.2242338133257769  0.9526338982440083
  0.8882320213977224  0.1137277280091210  0.0483895850487440
  0.7834748301348732  0.5570609327254540  0.9497291665665084
  0.8891055413138548  0.4455592478351610  0.0458979593397893
  0.7806535921764991  0.8904274151568377  0.9449385534692524
  0.8936722005025732  0.7817958430122535  0.0573424975153089
 
  0.00000000E+00  0.00000000E+00  0.00000000E+00
  0.00000000E+00  0.00000000E+00  0.00000000E+00
  0.00000000E+00  0.00000000E+00  0.00000000E+00
  0.00000000E+00  0.00000000E+00  0.00000000E+00
  0.00000000E+00  0.00000000E+00  0.00000000E+00
  0.00000000E+00  0.00000000E+00  0.00000000E+00
  0.00000000E+00  0.00000000E+00  0.00000000E+00
  0.00000000E+00  0.00000000E+00  0.00000000E+00
  0.00000000E+00  0.00000000E+00  0.00000000E+00
  0.00000000E+00  0.00000000E+00  0.00000000E+00
  0.00000000E+00  0.00000000E+00  0.00000000E+00
  0.00000000E+00  0.00000000E+00  0.00000000E+00
  0.00000000E+00  0.00000000E+00  0.00000000E+00
  0.00000000E+00  0.00000000E+00  0.00000000E+00
  0.00000000E+00  0.00000000E+00  0.00000000E+00
  0.00000000E+00  0.00000000E+00  0.00000000E+00
  0.00000000E+00  0.00000000E+00  0.00000000E+00
  0.00000000E+00  0.00000000E+00  0.00000000E+00
  0.00000000E+00  0.00000000E+00  0.00000000E+00
  0.00000000E+00  0.00000000E+00  0.00000000E+00
  0.00000000E+00  0.00000000E+00  0.00000000E+00
  0.00000000E+00  0.00000000E+00  0.00000000E+00
  0.00000000E+00  0.00000000E+00  0.00000000E+00
  0.00000000E+00  0.00000000E+00  0.00000000E+00
  0.00000000E+00  0.00000000E+00  0.00000000E+00
  0.00000000E+00  0.00000000E+00  0.00000000E+00
  0.00000000E+00  0.00000000E+00  0.00000000E+00
