crystal structure from VMoWS2 with Hexag
   1.00000000000000     
     8.3642171392985674    4.8212222531088864    0.0000000000000000
    -8.3440121638096514    4.7862541923742619    0.0000000000000000
     0.0000000000000000    0.0000000000000000   30.0000000000000000
   V    Mo   W    S 
     3     3     3    18
Direct
  0.3140486277900388  0.3475202924052052 -0.0016313403866262
  0.3624535267192293 -0.0018489063155559  0.0003924334629829
 -0.0210142108934262  0.6343245293947800  0.0003526725888644
  0.6712311252539267 -0.0019407778593477  0.0003998937152966
  0.6832451079605760  0.3132398503735825  0.0006696159779636
  0.3677528433347858  0.6850043558573887  0.0002830314296915
 -0.0204074852064258  0.0125784623832546 -0.0007996444451832
  0.9787494988103781  0.3172334034314938  0.0004921093690525
  0.6582492055874639  0.6864715487068500 -0.0003829766536774
  0.1099257901039181  0.2264168437641283  0.9460564489469053
  0.2257496008583681  0.1148466978477157  0.0431198927382894
  0.1148049560423690  0.5593334273137596  0.9539376932481108
  0.2214006182946975  0.4499008907913863  0.0500762800664487
  0.1105874455545733  0.8866160414140436  0.9586603299959033
  0.2231029808962673  0.7810822108014487  0.0479691108845141
  0.4411624403891123  0.2207466288757796  0.9540266282427199
  0.5543228722425291  0.1065206067880440  0.0549267908377230
  0.4447208443916678  0.5544360105932148  0.9455279841302641
  0.5509057435381189  0.4393357157841333  0.0426922164432815
  0.4481999700504701  0.8922626504127034  0.9459435925235922
  0.5625264999491999  0.7842456140229845  0.0571018062159927
  0.7789524807134472  0.2153996912712619  0.9438808992047104
  0.8876802468373689  0.1137976908207917  0.0569184088397304
  0.7728556374819793  0.5504545291139090  0.9517742506433636
  0.8898321063662272  0.4440085029112987  0.0556063721586386
  0.7772957246648883  0.8876249402052397  0.9434868787265639
  0.8898802557052323  0.7786030023680548  0.0485185202948476
 
  0.00000000E+00  0.00000000E+00  0.00000000E+00
  0.00000000E+00  0.00000000E+00  0.00000000E+00
  0.00000000E+00  0.00000000E+00  0.00000000E+00
  0.00000000E+00  0.00000000E+00  0.00000000E+00
  0.00000000E+00  0.00000000E+00  0.00000000E+00
  0.00000000E+00  0.00000000E+00  0.00000000E+00
  0.00000000E+00  0.00000000E+00  0.00000000E+00
  0.00000000E+00  0.00000000E+00  0.00000000E+00
  0.00000000E+00  0.00000000E+00  0.00000000E+00
  0.00000000E+00  0.00000000E+00  0.00000000E+00
  0.00000000E+00  0.00000000E+00  0.00000000E+00
  0.00000000E+00  0.00000000E+00  0.00000000E+00
  0.00000000E+00  0.00000000E+00  0.00000000E+00
  0.00000000E+00  0.00000000E+00  0.00000000E+00
  0.00000000E+00  0.00000000E+00  0.00000000E+00
  0.00000000E+00  0.00000000E+00  0.00000000E+00
  0.00000000E+00  0.00000000E+00  0.00000000E+00
  0.00000000E+00  0.00000000E+00  0.00000000E+00
  0.00000000E+00  0.00000000E+00  0.00000000E+00
  0.00000000E+00  0.00000000E+00  0.00000000E+00
  0.00000000E+00  0.00000000E+00  0.00000000E+00
  0.00000000E+00  0.00000000E+00  0.00000000E+00
  0.00000000E+00  0.00000000E+00  0.00000000E+00
  0.00000000E+00  0.00000000E+00  0.00000000E+00
  0.00000000E+00  0.00000000E+00  0.00000000E+00
  0.00000000E+00  0.00000000E+00  0.00000000E+00
  0.00000000E+00  0.00000000E+00  0.00000000E+00
