crystal structure from VMoWS2 with Hexag
   1.00000000000000     
     8.3396004306437792    4.7960361778711267    0.0000000000000000
    -8.3711232779935294    4.8503603912025177    0.0000000000000000
     0.0000000000000000    0.0000000000000000   30.0000000000000000
   V    Mo   W    S 
     3     3     3    18
Direct
  0.0357627756606293  0.6910798215492999 -0.0014759342405314
  0.3192208916813594  0.6317183312469111  0.0003795517760537
 -0.0069341728812475  0.0188603793689184  0.0009323166102652
  0.3282932689321994  0.3448467479048880  0.0004133600173637
  0.9882746724202618  0.3157879248010365 -0.0000849023562611
  0.6824194837543658  0.0266902237465781  0.0006851340121717
  0.3609799094835374  0.0209976055462534  0.0002958179120784
  0.6621256666254342  0.3039376574938827 -0.0013653534185680
  0.6329692634913844  0.6555325837817788 -0.0002022075929374
  0.1057785199337098  0.2152435418003311  0.9470665158176353
  0.2169105221731411  0.1056196204078089  0.0494658130143044
  0.1134483197076278  0.5556003906973471  0.9495435479270260
  0.2148817413188058  0.4405183827037066  0.0539007356252552
  0.1166060489202010  0.9005754754877578  0.9524045578962220
  0.2292994455245707  0.7751659394449801  0.0498280483980367
  0.4470187667663614  0.2267958928454062  0.9467072755771100
  0.5629733262569782  0.1132793247998050  0.0573269363018971
  0.4323505804589350  0.5519116257588261  0.9443185717917127
  0.5562822259903197  0.4399998114706239  0.0496324381364514
  0.4430142848506043  0.8798186703576635  0.9536809313383529
  0.5434533108904661  0.7749385864437184  0.0500123221361846
  0.7815545174526355  0.2240449909692704  0.9431993426978340
  0.8909601428677323  0.1083555050178495  0.0555273427247389
  0.7845232794044248  0.5577233925599693  0.9556776425956488
  0.8896159302808540  0.4514594902149477  0.0477675747424524
  0.7790762802920441  0.8901741186172379  0.9505503791638960
  0.8873554511796555  0.7775384184407648  0.0438121405955947
 
  0.00000000E+00  0.00000000E+00  0.00000000E+00
  0.00000000E+00  0.00000000E+00  0.00000000E+00
  0.00000000E+00  0.00000000E+00  0.00000000E+00
  0.00000000E+00  0.00000000E+00  0.00000000E+00
  0.00000000E+00  0.00000000E+00  0.00000000E+00
  0.00000000E+00  0.00000000E+00  0.00000000E+00
  0.00000000E+00  0.00000000E+00  0.00000000E+00
  0.00000000E+00  0.00000000E+00  0.00000000E+00
  0.00000000E+00  0.00000000E+00  0.00000000E+00
  0.00000000E+00  0.00000000E+00  0.00000000E+00
  0.00000000E+00  0.00000000E+00  0.00000000E+00
  0.00000000E+00  0.00000000E+00  0.00000000E+00
  0.00000000E+00  0.00000000E+00  0.00000000E+00
  0.00000000E+00  0.00000000E+00  0.00000000E+00
  0.00000000E+00  0.00000000E+00  0.00000000E+00
  0.00000000E+00  0.00000000E+00  0.00000000E+00
  0.00000000E+00  0.00000000E+00  0.00000000E+00
  0.00000000E+00  0.00000000E+00  0.00000000E+00
  0.00000000E+00  0.00000000E+00  0.00000000E+00
  0.00000000E+00  0.00000000E+00  0.00000000E+00
  0.00000000E+00  0.00000000E+00  0.00000000E+00
  0.00000000E+00  0.00000000E+00  0.00000000E+00
  0.00000000E+00  0.00000000E+00  0.00000000E+00
  0.00000000E+00  0.00000000E+00  0.00000000E+00
  0.00000000E+00  0.00000000E+00  0.00000000E+00
  0.00000000E+00  0.00000000E+00  0.00000000E+00
  0.00000000E+00  0.00000000E+00  0.00000000E+00
