crystal structure from VMoWS2 with Hexag
   1.00000000000000     
     8.2856164611068639    4.7844711939421609    0.0000000000000000
    -8.3067142697676601    4.8209846825029459    0.0000000000000000
     0.0000000000000000    0.0000000000000000   30.0000000000000000
   V    Mo   W    S 
     3     3     3    18
Direct
  0.6505136327502835  0.3011672419915504 -0.0017058766667565
  0.0178072282114069  0.7011193331425897  0.0018878716613098
  0.6832741043656584  0.7011555005673332  0.0018860583933601
  0.3387272872092697 -0.0003316848558995  0.0001923218086204
  0.6605967213845552 -0.0003360633813313  0.0001928692187336
  0.0046936524341148  0.0089069277137665  0.0003365366849773
  0.9824906891095838  0.2940822300463393 -0.0023741024492676
  0.3115879285287637  0.2941320107246665 -0.0023711844355751
  0.3532234900625033  0.7065367024979845  0.0020717064725041
  0.1070131742006997  0.2140171865225328  0.9418789359548937
  0.2206554505550920  0.1058379728054107  0.0549249176009865
  0.1100691065401827  0.5561053443277254  0.9563589930993323
  0.2226356669320088  0.4453415474007974  0.0443587544324115
  0.1102177712680466  0.8865479133502238  0.9474696594620532
  0.2204633030569511  0.7806294550759588  0.0556035981612039
  0.4480665081242974  0.2212087869122353  0.9447923842572356
  0.5577785068595734  0.1156811902845245  0.0541251313012672
  0.4459888832306740  0.5561213900435975  0.9563634383520582
  0.5564796353716807  0.4443483173839292  0.0427513296362288
  0.4468855736918474  0.8938777134658850  0.9444666312160128
  0.5600843581608996  0.7806632993640907  0.0556042923157287
  0.7730603547184262  0.2211888385467536  0.9448015984243335
  0.8850971190981473  0.1057460766106437  0.0548772985986584
  0.7785049684381449  0.5570904516148331  0.9580256336694440
  0.8877827425756751  0.4443173391624420  0.0427364626893058
  0.7763183689197211  0.8866295345589544  0.9475103620131293
  0.8881982276387720  0.7764298976000347  0.0532342773278033
 
  0.00000000E+00  0.00000000E+00  0.00000000E+00
  0.00000000E+00  0.00000000E+00  0.00000000E+00
  0.00000000E+00  0.00000000E+00  0.00000000E+00
  0.00000000E+00  0.00000000E+00  0.00000000E+00
  0.00000000E+00  0.00000000E+00  0.00000000E+00
  0.00000000E+00  0.00000000E+00  0.00000000E+00
  0.00000000E+00  0.00000000E+00  0.00000000E+00
  0.00000000E+00  0.00000000E+00  0.00000000E+00
  0.00000000E+00  0.00000000E+00  0.00000000E+00
  0.00000000E+00  0.00000000E+00  0.00000000E+00
  0.00000000E+00  0.00000000E+00  0.00000000E+00
  0.00000000E+00  0.00000000E+00  0.00000000E+00
  0.00000000E+00  0.00000000E+00  0.00000000E+00
  0.00000000E+00  0.00000000E+00  0.00000000E+00
  0.00000000E+00  0.00000000E+00  0.00000000E+00
  0.00000000E+00  0.00000000E+00  0.00000000E+00
  0.00000000E+00  0.00000000E+00  0.00000000E+00
  0.00000000E+00  0.00000000E+00  0.00000000E+00
  0.00000000E+00  0.00000000E+00  0.00000000E+00
  0.00000000E+00  0.00000000E+00  0.00000000E+00
  0.00000000E+00  0.00000000E+00  0.00000000E+00
  0.00000000E+00  0.00000000E+00  0.00000000E+00
  0.00000000E+00  0.00000000E+00  0.00000000E+00
  0.00000000E+00  0.00000000E+00  0.00000000E+00
  0.00000000E+00  0.00000000E+00  0.00000000E+00
  0.00000000E+00  0.00000000E+00  0.00000000E+00
  0.00000000E+00  0.00000000E+00  0.00000000E+00
