crystal structure from VMoWS2 with Hexag
   1.00000000000000     
     8.3363321281120548    4.8375539777549212    0.0000000000000000
    -8.3274105954017781    4.8221101250200045    0.0000000000000000
     0.0000000000000000    0.0000000000000000   30.0000000000000000
   V    Mo   W    S 
     3     3     3    18
Direct
  0.3059953900086972  0.6486298626268127  0.0002180342389455
  0.2973622146090907 -0.0190836108447160  0.0015655432676984
  0.6607919812443579  0.6312839462389304 -0.0012817128530440
  0.7017049022159627  0.3486729963977023 -0.0002564507801013
 -0.0088916454774025  0.6402350528323666 -0.0006745350622992
  0.9991701597788485  0.3352980915263585 -0.0001143911388365
  0.0154616040956480  0.0355998725672383  0.0004437773610577
  0.3106890365410673  0.3245980718086847 -0.0001037330413890
  0.7003243702472085  0.0357873014024920  0.0002626104539855
  0.1122788615697495  0.2298954819819879  0.9434853995598216
  0.2226129152449058  0.1102267763144686  0.0546424406408914
  0.1162040961534064  0.5594755882335487  0.9451423145174688
  0.2282097971989513  0.4512737946867146  0.0535521601386218
  0.1029383627215549  0.8883497271100672  0.9505107800947480
  0.2194851497279864  0.7735297365916317  0.0515817830191161
  0.4454700881200404  0.2159027128569951  0.9568219108517478
  0.5514287405526171  0.1098830651463296  0.0479719063600081
  0.4424186536752684  0.5570980893380549  0.9507151113391132
  0.5559555630426700  0.4379828412337607  0.0498882439726566
  0.4434746787831572  0.8913998990618206  0.9574209723503144
  0.5569170235634235  0.7768078540211484  0.0409762797037799
  0.7858509784966013  0.2299332226461986  0.9432186862310854
  0.8968642154091629  0.1195857045710906  0.0566704889182545
  0.7768423276539173  0.5538864106844293  0.9444284984005066
  0.8962315187597385  0.4447636982303156  0.0566078942480713
  0.7776888312702093  0.8867908248372607  0.9524517335584342
  0.8847346382301408  0.7804074413758714  0.0438541528493327
 
  0.00000000E+00  0.00000000E+00  0.00000000E+00
  0.00000000E+00  0.00000000E+00  0.00000000E+00
  0.00000000E+00  0.00000000E+00  0.00000000E+00
  0.00000000E+00  0.00000000E+00  0.00000000E+00
  0.00000000E+00  0.00000000E+00  0.00000000E+00
  0.00000000E+00  0.00000000E+00  0.00000000E+00
  0.00000000E+00  0.00000000E+00  0.00000000E+00
  0.00000000E+00  0.00000000E+00  0.00000000E+00
  0.00000000E+00  0.00000000E+00  0.00000000E+00
  0.00000000E+00  0.00000000E+00  0.00000000E+00
  0.00000000E+00  0.00000000E+00  0.00000000E+00
  0.00000000E+00  0.00000000E+00  0.00000000E+00
  0.00000000E+00  0.00000000E+00  0.00000000E+00
  0.00000000E+00  0.00000000E+00  0.00000000E+00
  0.00000000E+00  0.00000000E+00  0.00000000E+00
  0.00000000E+00  0.00000000E+00  0.00000000E+00
  0.00000000E+00  0.00000000E+00  0.00000000E+00
  0.00000000E+00  0.00000000E+00  0.00000000E+00
  0.00000000E+00  0.00000000E+00  0.00000000E+00
  0.00000000E+00  0.00000000E+00  0.00000000E+00
  0.00000000E+00  0.00000000E+00  0.00000000E+00
  0.00000000E+00  0.00000000E+00  0.00000000E+00
  0.00000000E+00  0.00000000E+00  0.00000000E+00
  0.00000000E+00  0.00000000E+00  0.00000000E+00
  0.00000000E+00  0.00000000E+00  0.00000000E+00
  0.00000000E+00  0.00000000E+00  0.00000000E+00
  0.00000000E+00  0.00000000E+00  0.00000000E+00
