crystal structure from VMoWS2 with Hexag
   1.00000000000000     
     8.3698053377841433    4.8129511320420724    0.0000000000000000
    -8.3889501451049462    4.8457962645251449    0.0000000000000000
     0.0000000000000000    0.0000000000000000   30.0000000000000000
   V    Mo   W    S 
     3     3     3    18
Direct
  0.6805784231501921  0.6446392025776367 -0.0002278579048220
  0.6584002283199177  0.3125783182172447 -0.0006296224702600
  0.3444125579836604  0.3163277465948596  0.0001811710316055
  0.0209404838688949  0.7047948135348535  0.0006929273175547
  0.6504833317285943  0.0191572072751441  0.0000544663457997
  0.3269513279351343 -0.0069870626656348 -0.0001979761761824
  0.0150123698473170 -0.0081705700949905 -0.0003287085302360
  0.9684889437447286  0.2939198809255127 -0.0017546721606405
  0.3383493179476202  0.7058784021703022  0.0015616633502167
  0.1165692960099081  0.2213758979024312  0.9490448910002395
  0.2222834683896081  0.1165589992913818  0.0533544570785177
  0.1102589341820066  0.5534113488275979  0.9535653641532414
  0.2212864777852222  0.4444381988824470  0.0416351752917683
  0.1175581027148376  0.8973759186451686  0.9431525416341696
  0.2223570317867169  0.7872410927954584  0.0574512368016367
  0.4500666703441450  0.2286598680812419  0.9477411074783545
  0.5504342483223402  0.1198693283337932  0.0543131853643141
  0.4461018989858591  0.5575447533553392  0.9575124036323954
  0.5586110470484256  0.4381342780535728  0.0498314493674874
  0.4428089522613772  0.8951449573658435  0.9440041580222743
  0.5573268988444928  0.7769511541990717  0.0484641466613665
  0.7694107803945265  0.2224308618632729  0.9436937462097330
  0.8780257539453237  0.0978274590536658  0.0518673006892471
  0.7851615147762603  0.5525901389927437  0.9506181043412836
  0.8911683000300633  0.4469263659618057  0.0440179902912689
  0.7705172229917209  0.8825949757118063  0.9568893649545493
  0.8846508700980813  0.7770009176260029  0.0534918854251079
 
  0.00000000E+00  0.00000000E+00  0.00000000E+00
  0.00000000E+00  0.00000000E+00  0.00000000E+00
  0.00000000E+00  0.00000000E+00  0.00000000E+00
  0.00000000E+00  0.00000000E+00  0.00000000E+00
  0.00000000E+00  0.00000000E+00  0.00000000E+00
  0.00000000E+00  0.00000000E+00  0.00000000E+00
  0.00000000E+00  0.00000000E+00  0.00000000E+00
  0.00000000E+00  0.00000000E+00  0.00000000E+00
  0.00000000E+00  0.00000000E+00  0.00000000E+00
  0.00000000E+00  0.00000000E+00  0.00000000E+00
  0.00000000E+00  0.00000000E+00  0.00000000E+00
  0.00000000E+00  0.00000000E+00  0.00000000E+00
  0.00000000E+00  0.00000000E+00  0.00000000E+00
  0.00000000E+00  0.00000000E+00  0.00000000E+00
  0.00000000E+00  0.00000000E+00  0.00000000E+00
  0.00000000E+00  0.00000000E+00  0.00000000E+00
  0.00000000E+00  0.00000000E+00  0.00000000E+00
  0.00000000E+00  0.00000000E+00  0.00000000E+00
  0.00000000E+00  0.00000000E+00  0.00000000E+00
  0.00000000E+00  0.00000000E+00  0.00000000E+00
  0.00000000E+00  0.00000000E+00  0.00000000E+00
  0.00000000E+00  0.00000000E+00  0.00000000E+00
  0.00000000E+00  0.00000000E+00  0.00000000E+00
  0.00000000E+00  0.00000000E+00  0.00000000E+00
  0.00000000E+00  0.00000000E+00  0.00000000E+00
  0.00000000E+00  0.00000000E+00  0.00000000E+00
  0.00000000E+00  0.00000000E+00  0.00000000E+00
