crystal structure from VMoWS2 with Hexag
   1.00000000000000     
     8.3555280384049517    4.8456517523195020    0.0000000000000000
    -8.3541744281326142    4.8430083897195786    0.0000000000000000
     0.0000000000000000    0.0000000000000000   30.0000000000000000
   V    Mo   W    S 
     3     3     3    18
Direct
 -0.0172556050121802 -0.0280663410880005 -0.0001722748047476
 -0.0206307120815305  0.6542436469189985  0.0006882171986875
  0.3099941464430591 -0.0367928685650077  0.0000703876343527
  0.3716142299108093  0.6838052615165500 -0.0006950645950904
  0.6860475313204523  0.3688562297761830 -0.0000145355745747
  0.6600335766634916  0.6662781769422901  0.0001919221222575
  0.9605016997538662  0.3251455958410315  0.0018563856059709
  0.3727308627775780  0.3677756043364935 -0.0015371500737680
  0.6588315341171986 -0.0230606503508752  0.0002924003896743
  0.1111565678578657  0.2231072087925423  0.9584262726335582
  0.2241971143779596  0.1113439140954120  0.0423761975988170
  0.1136497777907285  0.5554171253097961  0.9561020031008792
  0.2202517871793865  0.4431092896880912  0.0464778693074618
  0.1041705245885830  0.8791404794768709  0.9500247008644509
  0.2192429502635542  0.7672555246793994  0.0493889789703349
  0.4435280338618994  0.2194343742527931  0.9516562669172463
  0.5488232342281323  0.1118505654180828  0.0428335179190506
  0.4541944199336673  0.5649779312576995  0.9425436947756812
  0.5620316597182684  0.4525557986122534  0.0559973291347720
  0.4435980617210232  0.8921193700547594  0.9465116902895160
  0.5642269079973791  0.7799293529164109  0.0568273156315160
  0.7646380430481852  0.2199402458704526  0.9481635068035867
  0.8879847574799549  0.1045521040476655  0.0510371008457658
  0.7867273779727499  0.5694185614918174  0.9457117659702298
  0.8891496108614990  0.4528261843264537  0.0563788236906717
  0.7832996545575374  0.8944059905494829  0.9465783951273737
  0.8954767061058604  0.7786457773099137  0.0522841817163188
 
  0.00000000E+00  0.00000000E+00  0.00000000E+00
  0.00000000E+00  0.00000000E+00  0.00000000E+00
  0.00000000E+00  0.00000000E+00  0.00000000E+00
  0.00000000E+00  0.00000000E+00  0.00000000E+00
  0.00000000E+00  0.00000000E+00  0.00000000E+00
  0.00000000E+00  0.00000000E+00  0.00000000E+00
  0.00000000E+00  0.00000000E+00  0.00000000E+00
  0.00000000E+00  0.00000000E+00  0.00000000E+00
  0.00000000E+00  0.00000000E+00  0.00000000E+00
  0.00000000E+00  0.00000000E+00  0.00000000E+00
  0.00000000E+00  0.00000000E+00  0.00000000E+00
  0.00000000E+00  0.00000000E+00  0.00000000E+00
  0.00000000E+00  0.00000000E+00  0.00000000E+00
  0.00000000E+00  0.00000000E+00  0.00000000E+00
  0.00000000E+00  0.00000000E+00  0.00000000E+00
  0.00000000E+00  0.00000000E+00  0.00000000E+00
  0.00000000E+00  0.00000000E+00  0.00000000E+00
  0.00000000E+00  0.00000000E+00  0.00000000E+00
  0.00000000E+00  0.00000000E+00  0.00000000E+00
  0.00000000E+00  0.00000000E+00  0.00000000E+00
  0.00000000E+00  0.00000000E+00  0.00000000E+00
  0.00000000E+00  0.00000000E+00  0.00000000E+00
  0.00000000E+00  0.00000000E+00  0.00000000E+00
  0.00000000E+00  0.00000000E+00  0.00000000E+00
  0.00000000E+00  0.00000000E+00  0.00000000E+00
  0.00000000E+00  0.00000000E+00  0.00000000E+00
  0.00000000E+00  0.00000000E+00  0.00000000E+00
