crystal structure from VMoWS2 with Hexag
   1.00000000000000     
     8.3436855100164475    4.8175215464391004    0.0000000000000000
    -8.3620772595781983    4.8496247806388668    0.0000000000000000
     0.0000000000000000    0.0000000000000000   30.0000000000000000
   V    Mo   W    S 
     3     3     3    18
Direct
  0.3354911838601366  0.3129047689976487 -0.0000774018521235
  0.6467647114573993  0.6273767453487833 -0.0026299763808528
  0.3498830977224439  0.7006158254817506  0.0017911158347426
  0.3338796331259917  0.0046537308805267  0.0005020898465543
  0.6479687927849064  0.3043918565669530 -0.0009048148768644
  0.0320235424009254  0.0177800797455640  0.0007263213927584
  0.9713210098169750  0.2954440373606403 -0.0027402322974601
  0.0265991965719201  0.7105448725435650  0.0018351490015839
  0.6565157083882733  0.0177788680974152  0.0003473074254584
  0.1186724905016699  0.2278455015098814  0.9466261878389008
  0.2315455725613934  0.1202555757706685  0.0557919572126202
  0.1120535201308223  0.5576877585013276  0.9557785197225135
  0.2211977741434414  0.4463301356323302  0.0409003914341803
  0.1186166956717661  0.9001349948713787  0.9446688895089380
  0.2295049501370836  0.7835928504249737  0.0548850827797517
  0.4408768175649094  0.2243284133649871  0.9452041988110677
  0.5520639036469692  0.1093601572791174  0.0568145635468443
  0.4365649192124764  0.5512068219168970  0.9532390817840507
  0.5491698006553134  0.4362649744253733  0.0512305635689757
  0.4439285733566864  0.8895552309213574  0.9468191386663077
  0.5564587162505742  0.7740263283207152  0.0483811447567721
  0.7684573228360236  0.2150250719884873  0.9422164942137217
  0.8835799237826197  0.1038671706529185  0.0529276178683463
  0.7842907372247437  0.5552968445527553  0.9520157164082942
  0.8932550614594091  0.4512567901716343  0.0439181384755092
  0.7741400893012901  0.8809966753625267  0.9596696337598770
  0.8833907088708152  0.7796923727874029  0.0500630207495237
 
  0.00000000E+00  0.00000000E+00  0.00000000E+00
  0.00000000E+00  0.00000000E+00  0.00000000E+00
  0.00000000E+00  0.00000000E+00  0.00000000E+00
  0.00000000E+00  0.00000000E+00  0.00000000E+00
  0.00000000E+00  0.00000000E+00  0.00000000E+00
  0.00000000E+00  0.00000000E+00  0.00000000E+00
  0.00000000E+00  0.00000000E+00  0.00000000E+00
  0.00000000E+00  0.00000000E+00  0.00000000E+00
  0.00000000E+00  0.00000000E+00  0.00000000E+00
  0.00000000E+00  0.00000000E+00  0.00000000E+00
  0.00000000E+00  0.00000000E+00  0.00000000E+00
  0.00000000E+00  0.00000000E+00  0.00000000E+00
  0.00000000E+00  0.00000000E+00  0.00000000E+00
  0.00000000E+00  0.00000000E+00  0.00000000E+00
  0.00000000E+00  0.00000000E+00  0.00000000E+00
  0.00000000E+00  0.00000000E+00  0.00000000E+00
  0.00000000E+00  0.00000000E+00  0.00000000E+00
  0.00000000E+00  0.00000000E+00  0.00000000E+00
  0.00000000E+00  0.00000000E+00  0.00000000E+00
  0.00000000E+00  0.00000000E+00  0.00000000E+00
  0.00000000E+00  0.00000000E+00  0.00000000E+00
  0.00000000E+00  0.00000000E+00  0.00000000E+00
  0.00000000E+00  0.00000000E+00  0.00000000E+00
  0.00000000E+00  0.00000000E+00  0.00000000E+00
  0.00000000E+00  0.00000000E+00  0.00000000E+00
  0.00000000E+00  0.00000000E+00  0.00000000E+00
  0.00000000E+00  0.00000000E+00  0.00000000E+00
