crystal structure from VMoWS2 with Hexag
   1.00000000000000     
     8.3360163849833331    4.8364447989792287    0.0000000000000000
    -8.3170058220647274    4.8036255766561169    0.0000000000000000
     0.0000000000000000    0.0000000000000000   30.0000000000000000
   V    Mo   W    S 
     3     3     3    18
Direct
  0.6352171282108132  0.6331648916813767  0.0009919103175535
  0.0336150153510070  0.6714414803061267 -0.0009167032254197
  1.0379162169234186  0.3575352859584582 -0.0009138508907640
  0.3370587011408964  0.6640662806268702  0.0001404616517911
  0.6293794790365316  0.3119178797167989  0.0019841890991426
  0.3365386898784535  0.3347980794806322 -0.0004858952104136
 -0.0059064940217566  0.0274383035171059 -0.0000060554203742
  0.3580264498858164  0.0062038346743042 -0.0011816179395672
  0.6422676127920670 -0.0014422348715140  0.0007396328157667
  0.1099136373917479  0.2294458534895743  0.9454647394029151
  0.2154261882799568  0.1010522839059667  0.0490099915058042
  0.1170744130946487  0.5554310213979272  0.9461178143888551
  0.2254318035742981  0.4458560256600855  0.0533571305612015
  0.1096995800971326  0.8890727778215468  0.9524015199593652
  0.2265542661116858  0.7787982974174618  0.0518924176778730
  0.4356653028177849  0.2151403891551931  0.9445321506123125
  0.5496992912305320  0.1074450393499495  0.0579769548214540
  0.4481617511549308  0.5523982940704751  0.9460318123387675
  0.5498759771624574  0.4431729760026675  0.0556748830890986
  0.4436793335683089  0.8849339510384889  0.9446638524707582
  0.5646775825369345  0.7773208478022391  0.0519361683585815
  0.7846548329161164  0.2306660848653997  0.9549196014352752
  0.8909348109955940  0.1312090862554699  0.0506606235247078
  0.7770603251632545  0.5536946481132337  0.9551858730636732
  0.8921559331616762  0.4461917687407512  0.0442469760006436
  0.7669357256769661  0.8786376142181651  0.9533052226329438
  0.8865008993057090  0.7726236930827975  0.0422700961580547
 
  0.00000000E+00  0.00000000E+00  0.00000000E+00
  0.00000000E+00  0.00000000E+00  0.00000000E+00
  0.00000000E+00  0.00000000E+00  0.00000000E+00
  0.00000000E+00  0.00000000E+00  0.00000000E+00
  0.00000000E+00  0.00000000E+00  0.00000000E+00
  0.00000000E+00  0.00000000E+00  0.00000000E+00
  0.00000000E+00  0.00000000E+00  0.00000000E+00
  0.00000000E+00  0.00000000E+00  0.00000000E+00
  0.00000000E+00  0.00000000E+00  0.00000000E+00
  0.00000000E+00  0.00000000E+00  0.00000000E+00
  0.00000000E+00  0.00000000E+00  0.00000000E+00
  0.00000000E+00  0.00000000E+00  0.00000000E+00
  0.00000000E+00  0.00000000E+00  0.00000000E+00
  0.00000000E+00  0.00000000E+00  0.00000000E+00
  0.00000000E+00  0.00000000E+00  0.00000000E+00
  0.00000000E+00  0.00000000E+00  0.00000000E+00
  0.00000000E+00  0.00000000E+00  0.00000000E+00
  0.00000000E+00  0.00000000E+00  0.00000000E+00
  0.00000000E+00  0.00000000E+00  0.00000000E+00
  0.00000000E+00  0.00000000E+00  0.00000000E+00
  0.00000000E+00  0.00000000E+00  0.00000000E+00
  0.00000000E+00  0.00000000E+00  0.00000000E+00
  0.00000000E+00  0.00000000E+00  0.00000000E+00
  0.00000000E+00  0.00000000E+00  0.00000000E+00
  0.00000000E+00  0.00000000E+00  0.00000000E+00
  0.00000000E+00  0.00000000E+00  0.00000000E+00
  0.00000000E+00  0.00000000E+00  0.00000000E+00
