crystal structure from VMoWS2 with Hexag
   1.00000000000000     
     8.3135787022151657    4.8329927106257253    0.0000000000000000
    -8.2903388803043683    4.7927619817025136    0.0000000000000000
     0.0000000000000000    0.0000000000000000   30.0000000000000000
   V    Mo   W    S 
     3     3     3    18
Direct
  0.0348989544296736  0.0228195459872952 -0.0018205950721673
  0.0356501369484387  0.6796330554328993 -0.0014418511891757
  0.6333484065051397  0.3168462724317867  0.0018961734825618
  1.0380586235479239  0.3505763036966130 -0.0016501548924858
  0.3401805086276248  0.0214804634350217 -0.0004302577815159
  0.3309471968653173  0.3341916343711144 -0.0001488748489496
  0.3345169567528507  0.6481973554280694  0.0000413161717461
  0.6260244969191280 -0.0167072432277923  0.0025283620692083
  0.6323814221638474  0.6459830382196560  0.0010166999170953
  0.1130177271279825  0.2181944363748896  0.9442682322965659
  0.2184494456449709  0.1109797893562551  0.0538049095447056
  0.1153775422393252  0.5593650334520951  0.9448946194185257
  0.2280393636005667  0.4445332009617532  0.0562811673315834
  0.1091340601530644  0.8904579804198522  0.9474202438267486
  0.2271396379021641  0.7796827271094897  0.0502401511877369
  0.4492466272419788  0.2280704886154195  0.9455320735847601
  0.5529787816140266  0.1175615073566993  0.0560756822610238
  0.4390677752487523  0.5500686268280273  0.9433143774003422
  0.5558290247878542  0.4401138219251410  0.0549528601833963
  0.4318536803536808  0.8831595640136698  0.9475724608649021
  0.5508247193034316  0.7734208610587557  0.0562478800550450
  0.7764356745195768  0.2233456582667422  0.9569321965629805
  0.8872016976352386  0.1077723896943800  0.0444463867576403
  0.7795295150628786  0.5525939376698359  0.9560488616689388
  0.8878966563477726  0.4460077148151037  0.0431508431048977
  0.7789680304549615  0.8919883715248946  0.9568960118284057
  0.8912177914388083  0.7778779182599055  0.0419301234654733
 
  0.00000000E+00  0.00000000E+00  0.00000000E+00
  0.00000000E+00  0.00000000E+00  0.00000000E+00
  0.00000000E+00  0.00000000E+00  0.00000000E+00
  0.00000000E+00  0.00000000E+00  0.00000000E+00
  0.00000000E+00  0.00000000E+00  0.00000000E+00
  0.00000000E+00  0.00000000E+00  0.00000000E+00
  0.00000000E+00  0.00000000E+00  0.00000000E+00
  0.00000000E+00  0.00000000E+00  0.00000000E+00
  0.00000000E+00  0.00000000E+00  0.00000000E+00
  0.00000000E+00  0.00000000E+00  0.00000000E+00
  0.00000000E+00  0.00000000E+00  0.00000000E+00
  0.00000000E+00  0.00000000E+00  0.00000000E+00
  0.00000000E+00  0.00000000E+00  0.00000000E+00
  0.00000000E+00  0.00000000E+00  0.00000000E+00
  0.00000000E+00  0.00000000E+00  0.00000000E+00
  0.00000000E+00  0.00000000E+00  0.00000000E+00
  0.00000000E+00  0.00000000E+00  0.00000000E+00
  0.00000000E+00  0.00000000E+00  0.00000000E+00
  0.00000000E+00  0.00000000E+00  0.00000000E+00
  0.00000000E+00  0.00000000E+00  0.00000000E+00
  0.00000000E+00  0.00000000E+00  0.00000000E+00
  0.00000000E+00  0.00000000E+00  0.00000000E+00
  0.00000000E+00  0.00000000E+00  0.00000000E+00
  0.00000000E+00  0.00000000E+00  0.00000000E+00
  0.00000000E+00  0.00000000E+00  0.00000000E+00
  0.00000000E+00  0.00000000E+00  0.00000000E+00
  0.00000000E+00  0.00000000E+00  0.00000000E+00
