crystal structure from VMoWS2 with Hexag
   1.00000000000000     
     8.3604111390327791    4.8494737772950014    0.0000000000000000
    -8.3409477984698963    4.8160670735785107    0.0000000000000000
     0.0000000000000000    0.0000000000000000   30.0000000000000000
   V    Mo   W    S 
     3     3     3    18
Direct
  1.0336727448494787  0.3504484699378511 -0.0017852639130986
 -0.0384926467753803 -0.0194988345698432  0.0026274103008519
  0.6466641659995411 -0.0232292633665577  0.0000260049610877
  0.3503804196320986 -0.0148891381960036 -0.0006610527883084
  0.3377031654421475  0.6708977291716992 -0.0004399194185641
  0.6379440855256038  0.6562923893109309  0.0008668068419107
  0.0435456585914081  0.6837831175866257 -0.0017622441642816
  0.3511567919798972  0.3615339046448191 -0.0003180823986723
  0.6289375737004503  0.3249118616405162  0.0025980052358663
  0.1076859503051923  0.2176844242958325  0.9516047738712032
  0.2146720406750198  0.1071592650670977  0.0404745353502109
  0.1167932351514768  0.5540508851590547  0.9451312479674793
  0.2226036245277476  0.4455077920543062  0.0532383028822570
  0.1130983079866468  0.8960524913816907  0.9498571214859652
  0.2330065655051773  0.7811782768298026  0.0554457908627954
  0.4368245111043658  0.2202025570773182  0.9471302573709501
  0.5611492587619713  0.1091403804357359  0.0531130379010756
  0.4427491127987989  0.5576844314776541  0.9432238191447427
  0.5483415778164927  0.4466024366444507  0.0577826349686054
  0.4536472373813291  0.8887872049092761  0.9442991601300446
  0.5575321739851538  0.7832292049888973  0.0547544937486961
  0.7795134944385094  0.2249209943794178  0.9591159765354555
  0.8846742784540844  0.1142554591647050  0.0467282818310494
  0.7846694868761855  0.5580921040961985  0.9559008498188988
  0.8907865661061672  0.4453165630679965  0.0442383570796708
  0.7703107132610473  0.8872474140665307  0.9487646483758596
  0.8886443593563705  0.7708523322215731  0.0480449452182402
 
  0.00000000E+00  0.00000000E+00  0.00000000E+00
  0.00000000E+00  0.00000000E+00  0.00000000E+00
  0.00000000E+00  0.00000000E+00  0.00000000E+00
  0.00000000E+00  0.00000000E+00  0.00000000E+00
  0.00000000E+00  0.00000000E+00  0.00000000E+00
  0.00000000E+00  0.00000000E+00  0.00000000E+00
  0.00000000E+00  0.00000000E+00  0.00000000E+00
  0.00000000E+00  0.00000000E+00  0.00000000E+00
  0.00000000E+00  0.00000000E+00  0.00000000E+00
  0.00000000E+00  0.00000000E+00  0.00000000E+00
  0.00000000E+00  0.00000000E+00  0.00000000E+00
  0.00000000E+00  0.00000000E+00  0.00000000E+00
  0.00000000E+00  0.00000000E+00  0.00000000E+00
  0.00000000E+00  0.00000000E+00  0.00000000E+00
  0.00000000E+00  0.00000000E+00  0.00000000E+00
  0.00000000E+00  0.00000000E+00  0.00000000E+00
  0.00000000E+00  0.00000000E+00  0.00000000E+00
  0.00000000E+00  0.00000000E+00  0.00000000E+00
  0.00000000E+00  0.00000000E+00  0.00000000E+00
  0.00000000E+00  0.00000000E+00  0.00000000E+00
  0.00000000E+00  0.00000000E+00  0.00000000E+00
  0.00000000E+00  0.00000000E+00  0.00000000E+00
  0.00000000E+00  0.00000000E+00  0.00000000E+00
  0.00000000E+00  0.00000000E+00  0.00000000E+00
  0.00000000E+00  0.00000000E+00  0.00000000E+00
  0.00000000E+00  0.00000000E+00  0.00000000E+00
  0.00000000E+00  0.00000000E+00  0.00000000E+00
