crystal structure from VMoWS2 with Hexag
   1.00000000000000     
     8.3170442655026928    4.8038558762868249    0.0000000000000000
    -8.3295838835658440    4.8255807790915801    0.0000000000000000
     0.0000000000000000    0.0000000000000000   30.0000000000000000
   V    Mo   W    S 
     3     3     3    18
Direct
  0.9752138423331566  0.2933869532499209 -0.0021707635620106
  0.6497891013031198  0.2964060041541465 -0.0015991363080164
  0.0121289886560261 -0.0042530670738094 -0.0002901191105578
  0.3354324821329384 -0.0044087171119672 -0.0001932073528521
  0.0203400372253621  0.7052595457658688  0.0023934331883841
  0.6461717762222680 -0.0058653211564303 -0.0003041404473571
  0.3182644999292427  0.2962442393712389 -0.0013714787384359
  0.3374171926449600  0.7020042929404391  0.0011085467780937
  0.7009250903379540  0.7071583502296893  0.0021794591870688
  0.1057290409697823  0.2155640282503524  0.9466545521323863
  0.2159868571695095  0.1035510168693069  0.0541597107758831
  0.1066731113459047  0.5524821462202091  0.9546150135890795
  0.2150630695352426  0.4416361849931578  0.0426819602566435
  0.1142603741393175  0.8988103100629603  0.9456468027848052
  0.2256335344198033  0.7837181567314057  0.0579077225052200
  0.4495588353657418  0.2222242831700541  0.9450849079449327
  0.5553924158513653  0.1127219584100159  0.0541127839374630
  0.4475166325570408  0.5587107759746291  0.9580210615530319
  0.5603040701220244  0.4431024187884116  0.0442694620377493
  0.4412309374984992  0.8908479686792556  0.9430214903667088
  0.5525970260091957  0.7761471712585508  0.0545945896219190
  0.7735533615050955  0.2201001297354462  0.9460464348188370
  0.8861406766816802  0.1044388671075755  0.0493486968160941
  0.7779883247637738  0.5535840761285631  0.9562075439512432
  0.8867925225947523  0.4402678961061111  0.0424368526899091
  0.7890881682594245  0.9017070811392692  0.9481470978290458
  0.8990224838637971  0.7926677034831991  0.0572906219547252
 
  0.00000000E+00  0.00000000E+00  0.00000000E+00
  0.00000000E+00  0.00000000E+00  0.00000000E+00
  0.00000000E+00  0.00000000E+00  0.00000000E+00
  0.00000000E+00  0.00000000E+00  0.00000000E+00
  0.00000000E+00  0.00000000E+00  0.00000000E+00
  0.00000000E+00  0.00000000E+00  0.00000000E+00
  0.00000000E+00  0.00000000E+00  0.00000000E+00
  0.00000000E+00  0.00000000E+00  0.00000000E+00
  0.00000000E+00  0.00000000E+00  0.00000000E+00
  0.00000000E+00  0.00000000E+00  0.00000000E+00
  0.00000000E+00  0.00000000E+00  0.00000000E+00
  0.00000000E+00  0.00000000E+00  0.00000000E+00
  0.00000000E+00  0.00000000E+00  0.00000000E+00
  0.00000000E+00  0.00000000E+00  0.00000000E+00
  0.00000000E+00  0.00000000E+00  0.00000000E+00
  0.00000000E+00  0.00000000E+00  0.00000000E+00
  0.00000000E+00  0.00000000E+00  0.00000000E+00
  0.00000000E+00  0.00000000E+00  0.00000000E+00
  0.00000000E+00  0.00000000E+00  0.00000000E+00
  0.00000000E+00  0.00000000E+00  0.00000000E+00
  0.00000000E+00  0.00000000E+00  0.00000000E+00
  0.00000000E+00  0.00000000E+00  0.00000000E+00
  0.00000000E+00  0.00000000E+00  0.00000000E+00
  0.00000000E+00  0.00000000E+00  0.00000000E+00
  0.00000000E+00  0.00000000E+00  0.00000000E+00
  0.00000000E+00  0.00000000E+00  0.00000000E+00
  0.00000000E+00  0.00000000E+00  0.00000000E+00
