crystal structure from VMoWS2 with Hexag
   1.00000000000000     
     8.3448764881841395    4.8498036226580563    0.0000000000000000
    -8.3182884118914657    4.8038959601038940    0.0000000000000000
     0.0000000000000000    0.0000000000000000   30.0000000000000000
   V    Mo   W    S 
     3     3     3    18
Direct
  0.3676329094076721  0.3384527363742175 -0.0011923201804026
  0.3711750211374680  0.0245084499483023 -0.0010227344829139
  0.9686903838169502  0.3025621726115970  0.0012396577387662
  0.6759164479974785  0.0029193766436513 -0.0006391419660009
  0.6712432210629297  0.3343321172407061  0.0000569533204405
 -0.0369562137972756 -0.0203187352552932  0.0021393565615521
 -0.0243487727886777  0.6638194884598432  0.0008702786104298
  0.3171598311942078  0.6854778155363493  0.0001286135308163
  0.6920143428025342  0.6723815310889256 -0.0011005397355445
  0.1114548701809306  0.2217080920112908  0.9556480460388689
  0.2259621231160615  0.1130853869038735  0.0440599002694712
  0.0981816222649475  0.5448026778002494  0.9519661965205632
  0.2197089214106397  0.4376950922488876  0.0429068671683509
  0.1179257388850545  0.8970929674930008  0.9551329889544816
  0.2232171740501788  0.7975827312735306  0.0507759893915687
  0.4511992045305503  0.2226127243857724  0.9460601401281109
  0.5594819718929052  0.1125960235411450  0.0527224923205672
  0.4434696433381674  0.5567568141571883  0.9526448507895197
  0.5598944152230859  0.4460069173257435  0.0520833761145812
  0.4428898882178307  0.8935448515767936  0.9466721006658280
  0.5479719068958679  0.7672814621148919  0.0478612866992663
  0.7819051393703355  0.2193740765416955  0.9461953616756914
  0.8841042586104508  0.1106698238982927  0.0558238920110810
  0.7775069242724812  0.5525506706078032  0.9442804911955626
  0.8971503436312164  0.4441375648313829  0.0523531167795162
  0.7702046285456630  0.8818751618304079  0.9443938106050245
  0.8834585081673231  0.7747064622873284  0.0579388684747940
 
  0.00000000E+00  0.00000000E+00  0.00000000E+00
  0.00000000E+00  0.00000000E+00  0.00000000E+00
  0.00000000E+00  0.00000000E+00  0.00000000E+00
  0.00000000E+00  0.00000000E+00  0.00000000E+00
  0.00000000E+00  0.00000000E+00  0.00000000E+00
  0.00000000E+00  0.00000000E+00  0.00000000E+00
  0.00000000E+00  0.00000000E+00  0.00000000E+00
  0.00000000E+00  0.00000000E+00  0.00000000E+00
  0.00000000E+00  0.00000000E+00  0.00000000E+00
  0.00000000E+00  0.00000000E+00  0.00000000E+00
  0.00000000E+00  0.00000000E+00  0.00000000E+00
  0.00000000E+00  0.00000000E+00  0.00000000E+00
  0.00000000E+00  0.00000000E+00  0.00000000E+00
  0.00000000E+00  0.00000000E+00  0.00000000E+00
  0.00000000E+00  0.00000000E+00  0.00000000E+00
  0.00000000E+00  0.00000000E+00  0.00000000E+00
  0.00000000E+00  0.00000000E+00  0.00000000E+00
  0.00000000E+00  0.00000000E+00  0.00000000E+00
  0.00000000E+00  0.00000000E+00  0.00000000E+00
  0.00000000E+00  0.00000000E+00  0.00000000E+00
  0.00000000E+00  0.00000000E+00  0.00000000E+00
  0.00000000E+00  0.00000000E+00  0.00000000E+00
  0.00000000E+00  0.00000000E+00  0.00000000E+00
  0.00000000E+00  0.00000000E+00  0.00000000E+00
  0.00000000E+00  0.00000000E+00  0.00000000E+00
  0.00000000E+00  0.00000000E+00  0.00000000E+00
  0.00000000E+00  0.00000000E+00  0.00000000E+00
