crystal structure from VMoWS2 with Hexag
   1.00000000000000     
     8.3213964964597302    4.8319041923788433    0.0000000000000000
    -8.2939822473693088    4.7844948350934944    0.0000000000000000
     0.0000000000000000    0.0000000000000000   30.0000000000000000
   V    Mo   W    S 
     3     3     3    18
Direct
  1.0354455070533637  0.3555551108390472 -0.0014417090768142
  0.0349796777478103  0.0120826142389717 -0.0019344429842813
  0.6335155099456716  0.3164823739115560  0.0019249165279910
  0.0380802680701013  0.6875747563308570 -0.0017232324802234
  0.3312892545676557 -0.0033155558124126 -0.0002058256292320
  0.3399538208736428  0.3186624582882656 -0.0004407526282379
  0.3347369593237632  0.6861059847507824  0.0000244598640836
  0.6323497197890867 -0.0145334813308268  0.0010964518050087
  0.6257347336050334  0.6436724122902506  0.0026542803018730
  0.1091656059291069  0.2186874994247858  0.9473144304310053
  0.2185329210541906  0.1072320259689288  0.0537322883948132
  0.1151813228397366  0.5557121897737378  0.9449181064267483
  0.2268202149140318  0.4470929113467993  0.0502650114010498
  0.1135079344822669  0.8949346176176562  0.9441488974590432
  0.2278868624922730  0.7833921682608452  0.0562210631579317
  0.4495471261827242  0.2213622819364752  0.9455210183998968
  0.5560478336411744  0.1156897300595803  0.0549649157258742
  0.4318880376200728  0.5486819287883051  0.9475609604356028
  0.5527551694287889  0.4355683081477837  0.0560572710056970
  0.4394304361052416  0.8888538678230219  0.9432933283316680
  0.5502470513106525  0.7773188233306598  0.0565566991992234
  0.7796021287988091  0.2266233801170161  0.9561638900934814
  0.8912606362879392  0.1129360153955648  0.0419914847247964
  0.7762777256144654  0.5534196934921769  0.9570561121979091
  0.8879124991670455  0.4419901623807629  0.0431448182958527
  0.7789022983672674  0.8868621757107966  0.9567230852664321
  0.8871631982250583  0.7795700003961924  0.0444123725527951
 
  0.00000000E+00  0.00000000E+00  0.00000000E+00
  0.00000000E+00  0.00000000E+00  0.00000000E+00
  0.00000000E+00  0.00000000E+00  0.00000000E+00
  0.00000000E+00  0.00000000E+00  0.00000000E+00
  0.00000000E+00  0.00000000E+00  0.00000000E+00
  0.00000000E+00  0.00000000E+00  0.00000000E+00
  0.00000000E+00  0.00000000E+00  0.00000000E+00
  0.00000000E+00  0.00000000E+00  0.00000000E+00
  0.00000000E+00  0.00000000E+00  0.00000000E+00
  0.00000000E+00  0.00000000E+00  0.00000000E+00
  0.00000000E+00  0.00000000E+00  0.00000000E+00
  0.00000000E+00  0.00000000E+00  0.00000000E+00
  0.00000000E+00  0.00000000E+00  0.00000000E+00
  0.00000000E+00  0.00000000E+00  0.00000000E+00
  0.00000000E+00  0.00000000E+00  0.00000000E+00
  0.00000000E+00  0.00000000E+00  0.00000000E+00
  0.00000000E+00  0.00000000E+00  0.00000000E+00
  0.00000000E+00  0.00000000E+00  0.00000000E+00
  0.00000000E+00  0.00000000E+00  0.00000000E+00
  0.00000000E+00  0.00000000E+00  0.00000000E+00
  0.00000000E+00  0.00000000E+00  0.00000000E+00
  0.00000000E+00  0.00000000E+00  0.00000000E+00
  0.00000000E+00  0.00000000E+00  0.00000000E+00
  0.00000000E+00  0.00000000E+00  0.00000000E+00
  0.00000000E+00  0.00000000E+00  0.00000000E+00
  0.00000000E+00  0.00000000E+00  0.00000000E+00
  0.00000000E+00  0.00000000E+00  0.00000000E+00
