crystal structure from VMoWS2 with Hexag
   1.00000000000000     
     8.3411721119025213    4.8174954527786795    0.0000000000000000
    -8.3584408620275017    4.8470959633542616    0.0000000000000000
     0.0000000000000000    0.0000000000000000   30.0000000000000000
   V    Mo   W    S 
     3     3     3    18
Direct
  0.0173205346743786  0.0339541828496064  0.0017673131468606
  0.6444589397559297  0.6460737714586899 -0.0000970364137665
  0.6471647871838424 -0.0398943115363517 -0.0026099832234181
  0.6527882742522391  0.3518045733599087  0.0007528775720776
  0.3372319747907339  0.3381453589887302  0.0005236312170085
  0.3230041844390448  0.6375503399641910 -0.0009152316149662
  1.0276449511138712  0.3511178679399749  0.0003610613721859
 -0.0096429312448762  0.6287336283593135 -0.0028080311166353
  0.3506299113305525  0.0440802750938348  0.0018557330658294
  0.1122496032633839  0.2230444768163746  0.9468086842579215
  0.2205986165044899  0.1169109672945375  0.0549119751999224
  0.1131015469625361  0.5483028899260438  0.9422157132500569
  0.2235892559029464  0.4426496551406312  0.0568404437943551
  0.1124116836836769  0.8911001882924799  0.9557915604678519
  0.2245619959743472  0.7845807815344406  0.0438311974628358
  0.4483415781173777  0.2337695984958917  0.9447257177359670
  0.5631471878309875  0.1131054470105731  0.0499721874488844
  0.4501227344281079  0.5576937836889304  0.9452122070471419
  0.5551314012645499  0.4535789093608044  0.0558361834909957
  0.4376142146320877  0.8885374341284302  0.9520425532088600
  0.5535020094742475  0.7691505223386618  0.0512553912460467
  0.7731436087251302  0.2141021761250019  0.9597901976106445
  0.8839956680700140  0.1071504812592655  0.0483950004875935
  0.7758941728448560  0.5613405184567660  0.9464637662582702
  0.8868597565807387  0.4373825122191343  0.0529688358155111
  0.7814471075306360  0.8844554359737244  0.9531718008430479
  0.8919016853511587  0.7797929889379889  0.0409361495689040
 
  0.00000000E+00  0.00000000E+00  0.00000000E+00
  0.00000000E+00  0.00000000E+00  0.00000000E+00
  0.00000000E+00  0.00000000E+00  0.00000000E+00
  0.00000000E+00  0.00000000E+00  0.00000000E+00
  0.00000000E+00  0.00000000E+00  0.00000000E+00
  0.00000000E+00  0.00000000E+00  0.00000000E+00
  0.00000000E+00  0.00000000E+00  0.00000000E+00
  0.00000000E+00  0.00000000E+00  0.00000000E+00
  0.00000000E+00  0.00000000E+00  0.00000000E+00
  0.00000000E+00  0.00000000E+00  0.00000000E+00
  0.00000000E+00  0.00000000E+00  0.00000000E+00
  0.00000000E+00  0.00000000E+00  0.00000000E+00
  0.00000000E+00  0.00000000E+00  0.00000000E+00
  0.00000000E+00  0.00000000E+00  0.00000000E+00
  0.00000000E+00  0.00000000E+00  0.00000000E+00
  0.00000000E+00  0.00000000E+00  0.00000000E+00
  0.00000000E+00  0.00000000E+00  0.00000000E+00
  0.00000000E+00  0.00000000E+00  0.00000000E+00
  0.00000000E+00  0.00000000E+00  0.00000000E+00
  0.00000000E+00  0.00000000E+00  0.00000000E+00
  0.00000000E+00  0.00000000E+00  0.00000000E+00
  0.00000000E+00  0.00000000E+00  0.00000000E+00
  0.00000000E+00  0.00000000E+00  0.00000000E+00
  0.00000000E+00  0.00000000E+00  0.00000000E+00
  0.00000000E+00  0.00000000E+00  0.00000000E+00
  0.00000000E+00  0.00000000E+00  0.00000000E+00
  0.00000000E+00  0.00000000E+00  0.00000000E+00
