crystal structure from VMoWS2 with Hexag
   1.00000000000000     
     8.3942752481909011    4.8262704756260124    0.0000000000000000
    -8.3828894902088731    4.8062785978226259    0.0000000000000000
     0.0000000000000000    0.0000000000000000   30.0000000000000000
   V    Mo   W    S 
     3     3     3    18
Direct
  0.9838616827521414  0.3535321530415436 -0.0017335575602399
  0.3112403007489099  0.6837547852839045 -0.0018541053935978
  0.6818346660919669 -0.0241401350926779  0.0029787953013210
  0.3004962785494890 -0.0115185505240567 -0.0008522660823442
 -0.0037711203494108  0.6744230555079311 -0.0006096348318738
  0.6847468164773413  0.6583064121429845  0.0008739733472515
 -0.0073507299404660 -0.0301920899289783  0.0001988376554458
  0.3659180821056094  0.3314999804353980  0.0018402234793179
  0.6770429688414609  0.3613625519831062 -0.0002896232039070
  0.1115715398319224  0.2254566951820182  0.9590932967301906
  0.2168692240955918  0.1119325922807675  0.0533955366490761
  0.1110917656856845  0.5586785048900355  0.9473159653183091
  0.2233947739890771  0.4500407981656538  0.0432495042721091
  0.1046529699414906  0.8856014771568216  0.9425583460375953
  0.2191515043090374  0.7790399538341398  0.0528983084139267
  0.4506936299433550  0.2213497140144996  0.9468148734000239
  0.5579940343218015  0.1061739455423451  0.0404785858576567
  0.4405512497835313  0.5592370863832958  0.9553647050907186
  0.5631120517746976  0.4457336852547871  0.0576170146997830
  0.4492220395227404  0.8926714248445240  0.9521002895046328
  0.5473619454567479  0.7686800026604931  0.0482265079401588
  0.7772682363522462  0.2184866207410790  0.9519780095523664
  0.8936048640769362  0.1155867327273963  0.0474125915966142
  0.7819364364595008  0.5569502006075482  0.9431280721337282
  0.8898570607223724  0.4465992757992188  0.0531453002729808
  0.7766561594371140  0.8835157535341434  0.9474635721093357
  0.8892060224560854  0.7754518270096267  0.0572067769094003
 
  0.00000000E+00  0.00000000E+00  0.00000000E+00
  0.00000000E+00  0.00000000E+00  0.00000000E+00
  0.00000000E+00  0.00000000E+00  0.00000000E+00
  0.00000000E+00  0.00000000E+00  0.00000000E+00
  0.00000000E+00  0.00000000E+00  0.00000000E+00
  0.00000000E+00  0.00000000E+00  0.00000000E+00
  0.00000000E+00  0.00000000E+00  0.00000000E+00
  0.00000000E+00  0.00000000E+00  0.00000000E+00
  0.00000000E+00  0.00000000E+00  0.00000000E+00
  0.00000000E+00  0.00000000E+00  0.00000000E+00
  0.00000000E+00  0.00000000E+00  0.00000000E+00
  0.00000000E+00  0.00000000E+00  0.00000000E+00
  0.00000000E+00  0.00000000E+00  0.00000000E+00
  0.00000000E+00  0.00000000E+00  0.00000000E+00
  0.00000000E+00  0.00000000E+00  0.00000000E+00
  0.00000000E+00  0.00000000E+00  0.00000000E+00
  0.00000000E+00  0.00000000E+00  0.00000000E+00
  0.00000000E+00  0.00000000E+00  0.00000000E+00
  0.00000000E+00  0.00000000E+00  0.00000000E+00
  0.00000000E+00  0.00000000E+00  0.00000000E+00
  0.00000000E+00  0.00000000E+00  0.00000000E+00
  0.00000000E+00  0.00000000E+00  0.00000000E+00
  0.00000000E+00  0.00000000E+00  0.00000000E+00
  0.00000000E+00  0.00000000E+00  0.00000000E+00
  0.00000000E+00  0.00000000E+00  0.00000000E+00
  0.00000000E+00  0.00000000E+00  0.00000000E+00
  0.00000000E+00  0.00000000E+00  0.00000000E+00
