crystal structure from VMoWS2 with Hexag
   1.00000000000000     
     8.3902359814225029    4.8199035363142491    0.0000000000000000
    -8.3944483832605812    4.8270782614321606    0.0000000000000000
     0.0000000000000000    0.0000000000000000   30.0000000000000000
   V    Mo   W    S 
     3     3     3    18
Direct
  0.6572324511882340  0.6339420798847086  0.0002089101076534
  0.9761758020668465  0.3518430204622552 -0.0023156414728939
  0.3399651743786208  0.6394469302909930  0.0008804059154151
  0.6436492555704042  0.3120535879172939  0.0003138132198193
  0.3338085260073076  0.0191808588694117 -0.0001773432503827
  0.3487995399446101  0.3241278732972313  0.0006889723146879
  0.0300980819043608 -0.0019037175775946  0.0013320423014654
  0.0184915283150920  0.6969551127960908  0.0003581906927124
  0.6463328808416113  0.0177484931746578 -0.0014180315564850
  0.1060264902685680  0.2267527813730695  0.9543944614686037
  0.2259038145850267  0.1142304874560385  0.0572890434769246
  0.1181656683068762  0.5591821443928844  0.9498114278140598
  0.2096649134027154  0.4351157203785010  0.0470863238222742
  0.1188275957251083  0.8960848234596664  0.9436614249862521
  0.2342082050891741  0.7761664545975705  0.0479895515473405
  0.4443713595809637  0.2221735345858500  0.9433856315810865
  0.5488534572059270  0.1093212190021133  0.0563426227757104
  0.4508662511826937  0.5520162403488444  0.9490524625110280
  0.5566638277880331  0.4439457386929941  0.0550802454619671
  0.4353182842388690  0.8793928450076157  0.9501716604484935
  0.5587337248436877  0.7736381920727150  0.0458547243299199
  0.7744477152567671  0.2261047703208559  0.9455116196365885
  0.8914654929542232  0.1178798140791428  0.0432211580931449
  0.7814090385618425  0.5553741987838726  0.9511880091435586
  0.8864929963478376  0.4526415463786450  0.0494806421121331
  0.7755206375105155  0.8862544302094245  0.9588521604202213
  0.8867217403710631  0.7785452732227293  0.0517554112986934
 
  0.00000000E+00  0.00000000E+00  0.00000000E+00
  0.00000000E+00  0.00000000E+00  0.00000000E+00
  0.00000000E+00  0.00000000E+00  0.00000000E+00
  0.00000000E+00  0.00000000E+00  0.00000000E+00
  0.00000000E+00  0.00000000E+00  0.00000000E+00
  0.00000000E+00  0.00000000E+00  0.00000000E+00
  0.00000000E+00  0.00000000E+00  0.00000000E+00
  0.00000000E+00  0.00000000E+00  0.00000000E+00
  0.00000000E+00  0.00000000E+00  0.00000000E+00
  0.00000000E+00  0.00000000E+00  0.00000000E+00
  0.00000000E+00  0.00000000E+00  0.00000000E+00
  0.00000000E+00  0.00000000E+00  0.00000000E+00
  0.00000000E+00  0.00000000E+00  0.00000000E+00
  0.00000000E+00  0.00000000E+00  0.00000000E+00
  0.00000000E+00  0.00000000E+00  0.00000000E+00
  0.00000000E+00  0.00000000E+00  0.00000000E+00
  0.00000000E+00  0.00000000E+00  0.00000000E+00
  0.00000000E+00  0.00000000E+00  0.00000000E+00
  0.00000000E+00  0.00000000E+00  0.00000000E+00
  0.00000000E+00  0.00000000E+00  0.00000000E+00
  0.00000000E+00  0.00000000E+00  0.00000000E+00
  0.00000000E+00  0.00000000E+00  0.00000000E+00
  0.00000000E+00  0.00000000E+00  0.00000000E+00
  0.00000000E+00  0.00000000E+00  0.00000000E+00
  0.00000000E+00  0.00000000E+00  0.00000000E+00
  0.00000000E+00  0.00000000E+00  0.00000000E+00
  0.00000000E+00  0.00000000E+00  0.00000000E+00
