crystal structure from VMoWS2 with Hexag
   1.00000000000000     
     8.2635740982843195    4.7823774649298780    0.0000000000000000
    -8.2841727119950477    4.8180164940683827    0.0000000000000000
     0.0000000000000000    0.0000000000000000   30.0000000000000000
   V    Mo   W    S 
     3     3     3    18
Direct
  0.9973436961837812  0.3393077209568473  0.0003223941528328
  0.6752804102882933  0.6823981561575887  0.0004780517591715
  0.6720683309322009  0.3303125527948444 -0.0001787623371793
  0.0201253290266452  0.6872383539138519  0.0001230924583756
  0.6655166227439582 -0.0120389599819821  0.0002113486849187
 -0.0050468857230423 -0.0193609861465803 -0.0004692759946505
  0.3146724445432683 -0.0233645032752447 -0.0004533242752788
  0.3298237995655071  0.3365465506124168 -0.0007023019259103
  0.3323223037318742  0.6813737906440339  0.0004730035887720
  0.1037652792919168  0.2222913169806472  0.9500616789065410
  0.2221263314170061  0.1094018569056950  0.0512778392579879
  0.1107018690344792  0.5537532090821641  0.9484499700163040
  0.2160940888231316  0.4446287167423085  0.0507822461919049
  0.1116901047753531  0.8891412819425913  0.9432933957420040
  0.2246399128475233  0.7794869244945937  0.0570525018525856
  0.4462919871477388  0.2200133364181809  0.9510873637159519
  0.5537699750679933  0.1123062088766056  0.0492316639352665
  0.4499100933650156  0.5621914391895176  0.9504336863524389
  0.5603192287463540  0.4479699339933032  0.0484125343673298
  0.4443406181079851  0.8900808875715582  0.9459059193736952
  0.5564369119653410  0.7727332535858150  0.0530386382874044
  0.7808070931513156  0.2258675786764679  0.9500639557275580
  0.8934576361826032  0.1148591739862671  0.0493539236430127
  0.7768068056732268  0.5559010365170430  0.9524181917273544
  0.8872142101530811  0.4432226059704664  0.0495663932903022
  0.7746019199445087  0.8802088506945371  0.9465082163458232
  0.8831343364499211  0.7717441661740368  0.0532575543554751
 
  0.00000000E+00  0.00000000E+00  0.00000000E+00
  0.00000000E+00  0.00000000E+00  0.00000000E+00
  0.00000000E+00  0.00000000E+00  0.00000000E+00
  0.00000000E+00  0.00000000E+00  0.00000000E+00
  0.00000000E+00  0.00000000E+00  0.00000000E+00
  0.00000000E+00  0.00000000E+00  0.00000000E+00
  0.00000000E+00  0.00000000E+00  0.00000000E+00
  0.00000000E+00  0.00000000E+00  0.00000000E+00
  0.00000000E+00  0.00000000E+00  0.00000000E+00
  0.00000000E+00  0.00000000E+00  0.00000000E+00
  0.00000000E+00  0.00000000E+00  0.00000000E+00
  0.00000000E+00  0.00000000E+00  0.00000000E+00
  0.00000000E+00  0.00000000E+00  0.00000000E+00
  0.00000000E+00  0.00000000E+00  0.00000000E+00
  0.00000000E+00  0.00000000E+00  0.00000000E+00
  0.00000000E+00  0.00000000E+00  0.00000000E+00
  0.00000000E+00  0.00000000E+00  0.00000000E+00
  0.00000000E+00  0.00000000E+00  0.00000000E+00
  0.00000000E+00  0.00000000E+00  0.00000000E+00
  0.00000000E+00  0.00000000E+00  0.00000000E+00
  0.00000000E+00  0.00000000E+00  0.00000000E+00
  0.00000000E+00  0.00000000E+00  0.00000000E+00
  0.00000000E+00  0.00000000E+00  0.00000000E+00
  0.00000000E+00  0.00000000E+00  0.00000000E+00
  0.00000000E+00  0.00000000E+00  0.00000000E+00
  0.00000000E+00  0.00000000E+00  0.00000000E+00
  0.00000000E+00  0.00000000E+00  0.00000000E+00
