crystal structure from VMoWS2 with Hexag
   1.00000000000000     
     8.2905673735691465    4.7923639584587248    0.0000000000000000
    -8.3136469955454775    4.8323156059740686    0.0000000000000000
     0.0000000000000000    0.0000000000000000   30.0000000000000000
   V    Mo   W    S 
     3     3     3    18
Direct
  0.0130902226115868  0.7023347490579667  0.0015118247134276
  0.6501525540251856  0.2999520723934078 -0.0019375581874520
  0.3560489886056087  0.7014800349874055  0.0018476139879381
  0.3547466348882529  0.0068487830992533  0.0004205173137142
  0.6839481842684134  0.7047300050131350  0.0016705338196689
  0.6676258645074044 -0.0022334290110011  0.0001526749618205
 -0.0183611956982083  0.0013405365186754 -0.0000326719296345
  0.9793852717465850  0.2990307759756667 -0.0010360427741139
  0.3164880194035340  0.2926404439103567 -0.0025725280081149
  0.1066640009063930  0.2174132112636625  0.9437040491158776
  0.2165537679835662  0.0986203180188142  0.0524148169630919
  0.1112124996947726  0.5578997753141894  0.9580623334820264
  0.2252846792104447  0.4455384548977511  0.0431095931640213
  0.1129463611432899  0.8936621547330571  0.9497835639167149
  0.2238698807807029  0.7758867945553648  0.0526328741154914
  0.4508301332818633  0.2195292881456501  0.9438846417515790
  0.5614110254273100  0.1160053093714953  0.0544602650196682
  0.4411148671041281  0.5538531562510117  0.9555533565202047
  0.5566044926469481  0.4430057535068702  0.0430330311027546
  0.4443098510820415  0.8850481566641325  0.9462082992629975
  0.5515585143532739  0.7797584931960094  0.0557465419497219
  0.7734403640707842  0.2224700413939745  0.9450143838035494
  0.8834620470050333  0.1058711462514182  0.0566788164705721
  0.7793575769180850  0.5545493174044080  0.9568808218309932
  0.8859013028144823  0.4461785719829365  0.0439220282626464
  0.7778751315780751  0.8946598986432868  0.9437487738097136
  0.8926934130774112  0.7821406399386789  0.0551373447611119
 
  0.00000000E+00  0.00000000E+00  0.00000000E+00
  0.00000000E+00  0.00000000E+00  0.00000000E+00
  0.00000000E+00  0.00000000E+00  0.00000000E+00
  0.00000000E+00  0.00000000E+00  0.00000000E+00
  0.00000000E+00  0.00000000E+00  0.00000000E+00
  0.00000000E+00  0.00000000E+00  0.00000000E+00
  0.00000000E+00  0.00000000E+00  0.00000000E+00
  0.00000000E+00  0.00000000E+00  0.00000000E+00
  0.00000000E+00  0.00000000E+00  0.00000000E+00
  0.00000000E+00  0.00000000E+00  0.00000000E+00
  0.00000000E+00  0.00000000E+00  0.00000000E+00
  0.00000000E+00  0.00000000E+00  0.00000000E+00
  0.00000000E+00  0.00000000E+00  0.00000000E+00
  0.00000000E+00  0.00000000E+00  0.00000000E+00
  0.00000000E+00  0.00000000E+00  0.00000000E+00
  0.00000000E+00  0.00000000E+00  0.00000000E+00
  0.00000000E+00  0.00000000E+00  0.00000000E+00
  0.00000000E+00  0.00000000E+00  0.00000000E+00
  0.00000000E+00  0.00000000E+00  0.00000000E+00
  0.00000000E+00  0.00000000E+00  0.00000000E+00
  0.00000000E+00  0.00000000E+00  0.00000000E+00
  0.00000000E+00  0.00000000E+00  0.00000000E+00
  0.00000000E+00  0.00000000E+00  0.00000000E+00
  0.00000000E+00  0.00000000E+00  0.00000000E+00
  0.00000000E+00  0.00000000E+00  0.00000000E+00
  0.00000000E+00  0.00000000E+00  0.00000000E+00
  0.00000000E+00  0.00000000E+00  0.00000000E+00
