crystal structure from VMoWS2 with Hexag
   1.00000000000000     
     8.3931932732007066    4.8062281481212805    0.0000000000000000
    -8.4304221152832817    4.8707789258382581    0.0000000000000000
     0.0000000000000000    0.0000000000000000   30.0000000000000000
   V    Mo   W    S 
     3     3     3    18
Direct
  0.3067859102294139  0.3372860678369403 -0.0010276649789267
  0.0272072491385452  0.7075961486393937  0.0027035293044674
  0.6540558996191475  0.6209938577670837 -0.0021913935994768
  0.3483691832674417  0.7030984796852093  0.0005903816238925
  0.6621586799244548  0.2998912051725288 -0.0002862104675996
 -0.0037255673106730  0.0289070149669612  0.0004129370067359
  0.9800819275611971  0.3021531328973647 -0.0011910706016916
  0.3524726432511796 -0.0119347611800985  0.0005898818801663
  0.6681366745738901  0.0166435522173495  0.0001887622371885
  0.1127136336018225  0.2299475141885026  0.9440764409230034
  0.2287549043577174  0.1171202188566615  0.0458501000221694
  0.1067749212652765  0.5583681517594675  0.9566262134363351
  0.2171765363820040  0.4482679624137701  0.0480709853949496
  0.1174221452099909  0.8986695811095522  0.9510060492416298
  0.2227432230682311  0.7827954124814218  0.0559439761688723
  0.4398157447471800  0.2200116973673075  0.9515302608300713
  0.5536246902235200  0.1031307924312071  0.0573614443370701
  0.4429399039319917  0.5545185095765216  0.9506678407301069
  0.5434430518362198  0.4295895840562893  0.0482876372711772
  0.4570354241408819  0.8967824827603776  0.9433971907368877
  0.5648249988907934  0.7732469822212013  0.0479762954549696
  0.7797921543508496  0.2176694013287283  0.9425810231537739
  0.8810160244848201  0.1095374978055419  0.0567630273501212
  0.7885490075782647  0.5519410228753358  0.9525572933443187
  0.8923381486269680  0.4504424190470592  0.0464077976694589
  0.7720488253527799  0.8762343610133304  0.9537321300920939
  0.8816585151330686  0.7753061641825670  0.0473750406382267
 
  0.00000000E+00  0.00000000E+00  0.00000000E+00
  0.00000000E+00  0.00000000E+00  0.00000000E+00
  0.00000000E+00  0.00000000E+00  0.00000000E+00
  0.00000000E+00  0.00000000E+00  0.00000000E+00
  0.00000000E+00  0.00000000E+00  0.00000000E+00
  0.00000000E+00  0.00000000E+00  0.00000000E+00
  0.00000000E+00  0.00000000E+00  0.00000000E+00
  0.00000000E+00  0.00000000E+00  0.00000000E+00
  0.00000000E+00  0.00000000E+00  0.00000000E+00
  0.00000000E+00  0.00000000E+00  0.00000000E+00
  0.00000000E+00  0.00000000E+00  0.00000000E+00
  0.00000000E+00  0.00000000E+00  0.00000000E+00
  0.00000000E+00  0.00000000E+00  0.00000000E+00
  0.00000000E+00  0.00000000E+00  0.00000000E+00
  0.00000000E+00  0.00000000E+00  0.00000000E+00
  0.00000000E+00  0.00000000E+00  0.00000000E+00
  0.00000000E+00  0.00000000E+00  0.00000000E+00
  0.00000000E+00  0.00000000E+00  0.00000000E+00
  0.00000000E+00  0.00000000E+00  0.00000000E+00
  0.00000000E+00  0.00000000E+00  0.00000000E+00
  0.00000000E+00  0.00000000E+00  0.00000000E+00
  0.00000000E+00  0.00000000E+00  0.00000000E+00
  0.00000000E+00  0.00000000E+00  0.00000000E+00
  0.00000000E+00  0.00000000E+00  0.00000000E+00
  0.00000000E+00  0.00000000E+00  0.00000000E+00
  0.00000000E+00  0.00000000E+00  0.00000000E+00
  0.00000000E+00  0.00000000E+00  0.00000000E+00
