crystal structure from VMoWS2 with Hexag
   1.00000000000000     
     8.3520549383594069    4.8542376131708300    0.0000000000000000
    -8.3345639976630395    4.8237670604486569    0.0000000000000000
     0.0000000000000000    0.0000000000000000   30.0000000000000000
   V    Mo   W    S 
     3     3     3    18
Direct
  0.7028349844943884  0.0144280233747526 -0.0016904396582853
  0.7066523114046138  0.6875785809999354 -0.0020447537037003
  0.6269789057988718  0.3164748229651257  0.0028931868602817
  0.0123443843266015  0.0041713037275440 -0.0006853126303212
  0.0218138014354892  0.6987904160331120 -0.0010248113270983
  0.3063118038050328  0.3148075262912962  0.0009739502644748
  1.0175881037811774  0.3229979716966674 -0.0003394848777533
  0.3098126122704702  0.0060521168874981  0.0003180630988509
  0.2979513087744877  0.6344653852980345  0.0021654468282830
  0.1081442898950591  0.2181461396707291  0.9430586918043110
  0.2197848156264232  0.1108176327486861  0.0572938750337913
  0.1042859221010289  0.5491666541759185  0.9466743438754692
  0.2155226948676729  0.4365644946618450  0.0577635878426666
  0.1143388022561284  0.8952048451434675  0.9424861536245938
  0.2277877174965494  0.7829018915826772  0.0537404531222545
  0.4393573963325316  0.2227206077914528  0.9475550850116827
  0.5548330921273386  0.1069144307886008  0.0476848905115515
  0.4517934684409590  0.5596768645320142  0.9557470449603095
  0.5553681536245403  0.4539973836876207  0.0477793815109676
  0.4471498216514218  0.8882463706792069  0.9591794190825617
  0.5598739581720317  0.7772899140896734  0.0431317577935778
  0.7736801873342007  0.2231063929052074  0.9522427097236731
  0.8905075025672372  0.1098955662670983  0.0531203268200228
  0.7772996967025579  0.5517637376443643  0.9515770951303246
  0.8811785904551489  0.4416497754257861  0.0404346131532994
  0.7812371666259352  0.8897253516762498  0.9472249726306677
  0.8937829610690848  0.7806602527329797  0.0527396527135194
 
  0.00000000E+00  0.00000000E+00  0.00000000E+00
  0.00000000E+00  0.00000000E+00  0.00000000E+00
  0.00000000E+00  0.00000000E+00  0.00000000E+00
  0.00000000E+00  0.00000000E+00  0.00000000E+00
  0.00000000E+00  0.00000000E+00  0.00000000E+00
  0.00000000E+00  0.00000000E+00  0.00000000E+00
  0.00000000E+00  0.00000000E+00  0.00000000E+00
  0.00000000E+00  0.00000000E+00  0.00000000E+00
  0.00000000E+00  0.00000000E+00  0.00000000E+00
  0.00000000E+00  0.00000000E+00  0.00000000E+00
  0.00000000E+00  0.00000000E+00  0.00000000E+00
  0.00000000E+00  0.00000000E+00  0.00000000E+00
  0.00000000E+00  0.00000000E+00  0.00000000E+00
  0.00000000E+00  0.00000000E+00  0.00000000E+00
  0.00000000E+00  0.00000000E+00  0.00000000E+00
  0.00000000E+00  0.00000000E+00  0.00000000E+00
  0.00000000E+00  0.00000000E+00  0.00000000E+00
  0.00000000E+00  0.00000000E+00  0.00000000E+00
  0.00000000E+00  0.00000000E+00  0.00000000E+00
  0.00000000E+00  0.00000000E+00  0.00000000E+00
  0.00000000E+00  0.00000000E+00  0.00000000E+00
  0.00000000E+00  0.00000000E+00  0.00000000E+00
  0.00000000E+00  0.00000000E+00  0.00000000E+00
  0.00000000E+00  0.00000000E+00  0.00000000E+00
  0.00000000E+00  0.00000000E+00  0.00000000E+00
  0.00000000E+00  0.00000000E+00  0.00000000E+00
  0.00000000E+00  0.00000000E+00  0.00000000E+00
