crystal structure from VMoWS2 with Hexag
   1.00000000000000     
     8.3332048833572276    4.8159127185949231    0.0000000000000000
    -8.3442295407228411    4.8349962516354363    0.0000000000000000
     0.0000000000000000    0.0000000000000000   30.0000000000000000
   V    Mo   W    S 
     3     3     3    18
Direct
  0.9721665171299104  0.3241885679142289  0.0007071942326910
  0.3624890338474413  0.3687655699749824 -0.0005331131515488
  0.0317637093337046  0.6792674991583764 -0.0004323322680046
  0.6547011580987723  0.6880297689204167  0.0004760336483647
  0.6461664072165115  0.2962492563059844 -0.0000909776616647
  0.3550339221783974  0.6865401517172313 -0.0000141901141129
 -0.0049407072191414 -0.0274850743904423 -0.0009080912398812
  0.3394928830714705 -0.0118254751019770 -0.0001360121868022
  0.6466948286734165 -0.0051283109493605  0.0004710471730594
  0.1149379801844431  0.2259083433863501  0.9553909782885653
  0.2273668459941046  0.1219445171990236  0.0450316867724503
  0.1112911973507688  0.5529294114720803  0.9511001427967823
  0.2187816438517882  0.4424675092510625  0.0452709689510336
  0.1121010281811634  0.8795425760410622  0.9464943266394936
  0.2212664753795611  0.7745946590133469  0.0540558478554457
  0.4351296732848714  0.2198173186249866  0.9485534012502743
  0.5472696990568178  0.1027194116790411  0.0567927396927685
  0.4471972843097116  0.5612002450930715  0.9456010245306937
  0.5569756605222620  0.4483756446028558  0.0501981328381671
  0.4455210332174687  0.8914190989502129  0.9431214909698280
  0.5561433616001692  0.7848645361573224  0.0573030022510449
  0.7750687445993484  0.2177723480502474  0.9466791117465012
  0.8892497348213084  0.1096737540952222  0.0479326452572187
  0.7796226194344599  0.5550289957909208  0.9599833152162807
  0.8866825147218853  0.4455364202987868  0.0486490793528362
  0.7788020602865422  0.8965681464059848  0.9471180533310746
  0.8912391443098137  0.7692495638165435  0.0511843930274410
 
  0.00000000E+00  0.00000000E+00  0.00000000E+00
  0.00000000E+00  0.00000000E+00  0.00000000E+00
  0.00000000E+00  0.00000000E+00  0.00000000E+00
  0.00000000E+00  0.00000000E+00  0.00000000E+00
  0.00000000E+00  0.00000000E+00  0.00000000E+00
  0.00000000E+00  0.00000000E+00  0.00000000E+00
  0.00000000E+00  0.00000000E+00  0.00000000E+00
  0.00000000E+00  0.00000000E+00  0.00000000E+00
  0.00000000E+00  0.00000000E+00  0.00000000E+00
  0.00000000E+00  0.00000000E+00  0.00000000E+00
  0.00000000E+00  0.00000000E+00  0.00000000E+00
  0.00000000E+00  0.00000000E+00  0.00000000E+00
  0.00000000E+00  0.00000000E+00  0.00000000E+00
  0.00000000E+00  0.00000000E+00  0.00000000E+00
  0.00000000E+00  0.00000000E+00  0.00000000E+00
  0.00000000E+00  0.00000000E+00  0.00000000E+00
  0.00000000E+00  0.00000000E+00  0.00000000E+00
  0.00000000E+00  0.00000000E+00  0.00000000E+00
  0.00000000E+00  0.00000000E+00  0.00000000E+00
  0.00000000E+00  0.00000000E+00  0.00000000E+00
  0.00000000E+00  0.00000000E+00  0.00000000E+00
  0.00000000E+00  0.00000000E+00  0.00000000E+00
  0.00000000E+00  0.00000000E+00  0.00000000E+00
  0.00000000E+00  0.00000000E+00  0.00000000E+00
  0.00000000E+00  0.00000000E+00  0.00000000E+00
  0.00000000E+00  0.00000000E+00  0.00000000E+00
  0.00000000E+00  0.00000000E+00  0.00000000E+00
