crystal structure from VMoWS2 with Hexag
   1.00000000000000     
     8.3396568938022160    4.8023819668199037    0.0000000000000000
    -8.3343501427822311    4.7931089315974793    0.0000000000000000
     0.0000000000000000    0.0000000000000000   30.0000000000000000
   V    Mo   W    S 
     3     3     3    18
Direct
  0.3123798752262281  0.6858535242273898 -0.0028457299055874
  0.0188060712368529 -0.0201302313293211  0.0029346896271345
  0.9834607105484200  0.3491369542981838 -0.0017003442166168
 -0.0210588073700902  0.6493824269248807 -0.0001024094395997
  0.3538021382687018  0.0200060369495416 -0.0000663119240471
  0.6620975981202092  0.3339231695442229 -0.0002471374412364
  0.3535626375433405  0.3186259786842794  0.0015902199177004
  0.6517409475785448  0.0207739017832368 -0.0014703395713719
  0.6808788537850919  0.6444079015483571  0.0018505749591008
  0.1083830801484820  0.2182017136482810  0.9578132065403695
  0.2227806269022922  0.1086366786650229  0.0552233229987639
  0.1077205436150594  0.5530387840413471  0.9461241439931700
  0.2219342619399514  0.4477982840323059  0.0422612906583470
  0.1130025069622643  0.8871950306697218  0.9497510721920092
  0.2197051157573022  0.7797543402358508  0.0499345851221963
  0.4483126577526894  0.2232185278472634  0.9434603979140398
  0.5574478030938599  0.1162702254944435  0.0561093750582400
  0.4423678913203095  0.5577063597310017  0.9551194828362868
  0.5567993480792646  0.4427299091690032  0.0573975998669563
  0.4418822086135809  0.8898346580144487  0.9447383777192934
  0.5502877924879265  0.7748141633798851  0.0429224086548136
  0.7819690796737735  0.2265097110724477  0.9450205847988284
  0.8928180687456093  0.1124194021155943  0.0436977210166143
  0.7760741600717677  0.5512840740872222  0.9436675253834806
  0.8887281255733817  0.4402129539322522  0.0538241897946619
  0.7819859750923105  0.8905841377807704  0.9573037747241248
  0.8903451826698595  0.7760258369299402  0.0556876279223192
 
  0.00000000E+00  0.00000000E+00  0.00000000E+00
  0.00000000E+00  0.00000000E+00  0.00000000E+00
  0.00000000E+00  0.00000000E+00  0.00000000E+00
  0.00000000E+00  0.00000000E+00  0.00000000E+00
  0.00000000E+00  0.00000000E+00  0.00000000E+00
  0.00000000E+00  0.00000000E+00  0.00000000E+00
  0.00000000E+00  0.00000000E+00  0.00000000E+00
  0.00000000E+00  0.00000000E+00  0.00000000E+00
  0.00000000E+00  0.00000000E+00  0.00000000E+00
  0.00000000E+00  0.00000000E+00  0.00000000E+00
  0.00000000E+00  0.00000000E+00  0.00000000E+00
  0.00000000E+00  0.00000000E+00  0.00000000E+00
  0.00000000E+00  0.00000000E+00  0.00000000E+00
  0.00000000E+00  0.00000000E+00  0.00000000E+00
  0.00000000E+00  0.00000000E+00  0.00000000E+00
  0.00000000E+00  0.00000000E+00  0.00000000E+00
  0.00000000E+00  0.00000000E+00  0.00000000E+00
  0.00000000E+00  0.00000000E+00  0.00000000E+00
  0.00000000E+00  0.00000000E+00  0.00000000E+00
  0.00000000E+00  0.00000000E+00  0.00000000E+00
  0.00000000E+00  0.00000000E+00  0.00000000E+00
  0.00000000E+00  0.00000000E+00  0.00000000E+00
  0.00000000E+00  0.00000000E+00  0.00000000E+00
  0.00000000E+00  0.00000000E+00  0.00000000E+00
  0.00000000E+00  0.00000000E+00  0.00000000E+00
  0.00000000E+00  0.00000000E+00  0.00000000E+00
  0.00000000E+00  0.00000000E+00  0.00000000E+00
