crystal structure from VMoWS2 with Hexag
   1.00000000000000     
     8.3799092406273612    4.8166063598599758    0.0000000000000000
    -8.3803432373474305    4.8170939220610371    0.0000000000000000
     0.0000000000000000    0.0000000000000000   30.0000000000000000
   V    Mo   W    S 
     3     3     3    18
Direct
  0.6474027952691602  0.0192921062180928 -0.0026370089613256
  0.3498081326283194  0.6492404205094645  0.0018077618688519
  0.3360505203817162  0.0228798299140239 -0.0000439859897213
  0.3335534409662486  0.3290152257761221  0.0004648071192203
  0.0318171745651109  0.0145670689304943  0.0006775452761732
  0.6481582347513664  0.3435435693230161 -0.0008831871558146
  1.0264210054428360  0.3160828674655283  0.0017967992190001
 -0.0290071499145456  0.6753924413027911 -0.0026653647823484
  0.6563375273698413  0.6383913678314874  0.0003243683983095
  0.1184530610132466  0.2186767308741938  0.9445964746338109
  0.2314202138422895  0.1110650934736401  0.0557395439076622
  0.1121410472112152  0.5545604982490967  0.9557673281229548
  0.2293515970492989  0.4457769151583553  0.0548912899658581
  0.1186573599462567  0.8908926483086363  0.9467800277179558
  0.2212435016436946  0.7749190202392161  0.0409056005956705
  0.4408821735187213  0.2165639338580955  0.9452264304340939
  0.5495068032325077  0.1126291473788524  0.0512370274008024
  0.4437723447068128  0.5543294033902750  0.9467873018329137
  0.5517746977093526  0.4422451885115977  0.0567880326389525
  0.4368334627925408  0.8854397393545086  0.9532666229127843
  0.5566041419619171  0.7822289407170377  0.0483962470336803
  0.7844206254783285  0.2290345905836648  0.9519474204620182
  0.8835293400547318  0.1037999351080642  0.0501458476758847
  0.7684451623918197  0.5533018139185227  0.9422163122218417
  0.8932210635347761  0.4419147897503767  0.0440336191384972
  0.7740874331955210  0.8927628333372041  0.9595396018922708
  0.8833287426938963  0.7796683339952100  0.0528934356199895
 
  0.00000000E+00  0.00000000E+00  0.00000000E+00
  0.00000000E+00  0.00000000E+00  0.00000000E+00
  0.00000000E+00  0.00000000E+00  0.00000000E+00
  0.00000000E+00  0.00000000E+00  0.00000000E+00
  0.00000000E+00  0.00000000E+00  0.00000000E+00
  0.00000000E+00  0.00000000E+00  0.00000000E+00
  0.00000000E+00  0.00000000E+00  0.00000000E+00
  0.00000000E+00  0.00000000E+00  0.00000000E+00
  0.00000000E+00  0.00000000E+00  0.00000000E+00
  0.00000000E+00  0.00000000E+00  0.00000000E+00
  0.00000000E+00  0.00000000E+00  0.00000000E+00
  0.00000000E+00  0.00000000E+00  0.00000000E+00
  0.00000000E+00  0.00000000E+00  0.00000000E+00
  0.00000000E+00  0.00000000E+00  0.00000000E+00
  0.00000000E+00  0.00000000E+00  0.00000000E+00
  0.00000000E+00  0.00000000E+00  0.00000000E+00
  0.00000000E+00  0.00000000E+00  0.00000000E+00
  0.00000000E+00  0.00000000E+00  0.00000000E+00
  0.00000000E+00  0.00000000E+00  0.00000000E+00
  0.00000000E+00  0.00000000E+00  0.00000000E+00
  0.00000000E+00  0.00000000E+00  0.00000000E+00
  0.00000000E+00  0.00000000E+00  0.00000000E+00
  0.00000000E+00  0.00000000E+00  0.00000000E+00
  0.00000000E+00  0.00000000E+00  0.00000000E+00
  0.00000000E+00  0.00000000E+00  0.00000000E+00
  0.00000000E+00  0.00000000E+00  0.00000000E+00
  0.00000000E+00  0.00000000E+00  0.00000000E+00
