crystal structure from VMoWS2 with Hexag
   1.00000000000000     
     8.2960314118399854    4.7849501761560633    0.0000000000000000
    -8.3232336837889722    4.8320676744008626    0.0000000000000000
     0.0000000000000000    0.0000000000000000   30.0000000000000000
   V    Mo   W    S 
     3     3     3    18
Direct
 -0.0121133897799808 -0.0350114156528761 -0.0018311002508577
  0.6836920053584807  0.3666670753685363  0.0018967936944504
  0.6438115175291531 -0.0358301705938169 -0.0013897828796476
  0.3123185738734852 -0.0383274450917428 -0.0016693836820075
  0.6813333708543329  0.6597235737777042 -0.0004496098272495
  0.0030877919478120  0.6687412398187497 -0.0001650873781227
  1.0136696782167280  0.3675269252533894  0.0010129108008454
  0.3570450686434124  0.3740616081816691  0.0025511627911125
  0.3135432354375110  0.6651827454073619  0.0000440495378514
  0.1130329031279335  0.2210149631144041  0.9568829244070526
  0.2205659467952975  0.1127514333244652  0.0444033179032235
  0.1109805322329632  0.5608039617961275  0.9433016103063311
  0.2223656732998946  0.4489759566063365  0.0563057278863636
  0.1050559783052000  0.8867511462572284  0.9442437879840748
  0.2163184299797527  0.7717042083823227  0.0562626765394356
  0.4467935549771512  0.2234803070445191  0.9570433052494041
  0.5579963796802212  0.1120082670403414  0.0431090680522848
  0.4513811768176034  0.5681979637786995  0.9475635658133670
  0.5645206233958758  0.4469398088784893  0.0560463092177473
  0.4439607527963417  0.8845035377489685  0.9449235159662922
  0.5524296119831386  0.7725295987702628  0.0502344441558330
  0.7730407575885123  0.2203699897987502  0.9560723757601679
  0.8865929730236817  0.1086134615692451  0.0419197268229042
  0.7787933605996339  0.5506473233733300  0.9454832260141791
  0.8841952539726226  0.4439307960594555  0.0549690011777970
  0.7813281899104912  0.8909055314770420  0.9474407601124740
  0.8924745028697384  0.7813520619886091  0.0537946030246856
 
  0.00000000E+00  0.00000000E+00  0.00000000E+00
  0.00000000E+00  0.00000000E+00  0.00000000E+00
  0.00000000E+00  0.00000000E+00  0.00000000E+00
  0.00000000E+00  0.00000000E+00  0.00000000E+00
  0.00000000E+00  0.00000000E+00  0.00000000E+00
  0.00000000E+00  0.00000000E+00  0.00000000E+00
  0.00000000E+00  0.00000000E+00  0.00000000E+00
  0.00000000E+00  0.00000000E+00  0.00000000E+00
  0.00000000E+00  0.00000000E+00  0.00000000E+00
  0.00000000E+00  0.00000000E+00  0.00000000E+00
  0.00000000E+00  0.00000000E+00  0.00000000E+00
  0.00000000E+00  0.00000000E+00  0.00000000E+00
  0.00000000E+00  0.00000000E+00  0.00000000E+00
  0.00000000E+00  0.00000000E+00  0.00000000E+00
  0.00000000E+00  0.00000000E+00  0.00000000E+00
  0.00000000E+00  0.00000000E+00  0.00000000E+00
  0.00000000E+00  0.00000000E+00  0.00000000E+00
  0.00000000E+00  0.00000000E+00  0.00000000E+00
  0.00000000E+00  0.00000000E+00  0.00000000E+00
  0.00000000E+00  0.00000000E+00  0.00000000E+00
  0.00000000E+00  0.00000000E+00  0.00000000E+00
  0.00000000E+00  0.00000000E+00  0.00000000E+00
  0.00000000E+00  0.00000000E+00  0.00000000E+00
  0.00000000E+00  0.00000000E+00  0.00000000E+00
  0.00000000E+00  0.00000000E+00  0.00000000E+00
  0.00000000E+00  0.00000000E+00  0.00000000E+00
  0.00000000E+00  0.00000000E+00  0.00000000E+00
