crystal structure from VMoWS2 with Hexag
   1.00000000000000     
     8.3356187787010647    4.8425789289821868    0.0000000000000000
    -8.3345727135027072    4.8407805215599025    0.0000000000000000
     0.0000000000000000    0.0000000000000000   30.0000000000000000
   V    Mo   W    S 
     3     3     3    18
Direct
  0.9754794712447690  0.3374577209516446  0.0004965892496316
 -0.0070403554644728  0.6738619253828466 -0.0001611253657410
  0.3288337977140438  0.6911380228105023  0.0004466559893349
  0.6502544004325805  0.3053308019292065  0.0004830141349823
  0.6589728077413286  0.0074378802829853  0.0004122432544477
  0.3620607136207960  0.0159536950011675  0.0004562536586973
 -0.0219726901130668 -0.0258695733292635 -0.0009877863006084
  0.3508507683501230  0.3158811320785432 -0.0003912217241664
  0.6929867204336505  0.6871535519469919 -0.0011037290889374
  0.1082119945225624  0.2230551564442833  0.9541265427835580
  0.2205313915435511  0.1058626171075097  0.0508017371399098
  0.1087384112923758  0.5579996913241032  0.9524847870107910
  0.2219480538857472  0.4446151278282509  0.0419471778672066
  0.1149729456192662  0.8867087678077225  0.9510388783531331
  0.2205456291862000  0.7796846673567545  0.0507108631202856
  0.4487045484846157  0.2174412538600565  0.9428793300729629
  0.5582352679993908  0.1089006371386540  0.0575467781628526
  0.4433244243514369  0.5581677586934800  0.9542350867695231
  0.5603844185679185  0.4461790983391283  0.0509368591379149
  0.4437235899049576  0.8860104874622193  0.9462409642538000
  0.5508050350437036  0.7732580422710222  0.0494090586483566
  0.7802363629850929  0.2228279248498963  0.9463574965164103
  0.8929689751489207  0.1155603059799859  0.0496194578208287
  0.7804786634669237  0.5516948221064673  0.9507467030142159
  0.8870828099105960  0.4462227282336899  0.0506393310598912
  0.7743982378715328  0.8914997188190573  0.9454145545199675
  0.8924980596924272  0.7741804908006598  0.0552133991407488
 
  0.00000000E+00  0.00000000E+00  0.00000000E+00
  0.00000000E+00  0.00000000E+00  0.00000000E+00
  0.00000000E+00  0.00000000E+00  0.00000000E+00
  0.00000000E+00  0.00000000E+00  0.00000000E+00
  0.00000000E+00  0.00000000E+00  0.00000000E+00
  0.00000000E+00  0.00000000E+00  0.00000000E+00
  0.00000000E+00  0.00000000E+00  0.00000000E+00
  0.00000000E+00  0.00000000E+00  0.00000000E+00
  0.00000000E+00  0.00000000E+00  0.00000000E+00
  0.00000000E+00  0.00000000E+00  0.00000000E+00
  0.00000000E+00  0.00000000E+00  0.00000000E+00
  0.00000000E+00  0.00000000E+00  0.00000000E+00
  0.00000000E+00  0.00000000E+00  0.00000000E+00
  0.00000000E+00  0.00000000E+00  0.00000000E+00
  0.00000000E+00  0.00000000E+00  0.00000000E+00
  0.00000000E+00  0.00000000E+00  0.00000000E+00
  0.00000000E+00  0.00000000E+00  0.00000000E+00
  0.00000000E+00  0.00000000E+00  0.00000000E+00
  0.00000000E+00  0.00000000E+00  0.00000000E+00
  0.00000000E+00  0.00000000E+00  0.00000000E+00
  0.00000000E+00  0.00000000E+00  0.00000000E+00
  0.00000000E+00  0.00000000E+00  0.00000000E+00
  0.00000000E+00  0.00000000E+00  0.00000000E+00
  0.00000000E+00  0.00000000E+00  0.00000000E+00
  0.00000000E+00  0.00000000E+00  0.00000000E+00
  0.00000000E+00  0.00000000E+00  0.00000000E+00
  0.00000000E+00  0.00000000E+00  0.00000000E+00
