crystal structure from VMoWS2 with Hexag
   1.00000000000000     
     8.3347518902405646    4.8116287191674791    0.0000000000000000
    -8.3180054738686060    4.7826310268144292    0.0000000000000000
     0.0000000000000000    0.0000000000000000   30.0000000000000000
   V    Mo   W    S 
     3     3     3    18
Direct
  1.0010533614326540  0.3383418046029986 -0.0003057576571234
  0.6640893993792220  0.6617748100170798  0.0003716467219808
  0.6986036727537182 -0.0000301836815793  0.0000228737198759
  0.3301110736010843  0.3192264622184401  0.0007821930906903
  0.0099775035709446  0.6806824068120866 -0.0007578718278306
  0.0175705701836008  0.0001177898250026  0.0000024183393506
  0.3063210774463964  0.0005566950550872 -0.0000534423792316
  0.3116959468372412  0.6450188439710299 -0.0003771360261237
  0.6656786709908460  0.3537878084226987  0.0003024541775839
  0.1087417551524090  0.2245133875187962  0.9491267721100440
  0.2221040035187990  0.1101337992290618  0.0571768974130294
  0.1027042705812430  0.5471501776114611  0.9467300357129481
  0.2116446987420129  0.4370871579485523  0.0526935981940528
  0.1118432184142769  0.8898971671627683  0.9428660150936334
  0.2245986338078449  0.7801769526596796  0.0525421386314230
  0.4443631483034131  0.2197474433113009  0.9472003518485731
  0.5576361882377812  0.1075999285295202  0.0439381012119166
  0.4440472509950092  0.5535626223667059  0.9502617897539835
  0.5558548769259863  0.4526768669930903  0.0532924657619070
  0.4496798947458972  0.8919933170195564  0.9561772583220571
  0.5578188316646369  0.7780430375973526  0.0480828446166691
  0.7794852011907170  0.2214913550187909  0.9518045705932244
  0.8949475582042694  0.1162590750657552  0.0510768941267658
  0.7743811468562708  0.5624810619814424  0.9472922517531496
  0.8901258647294266  0.4463706907185656  0.0497808469579927
  0.7789127812758230  0.8837941417778350  0.9489908683158612
  0.8842238538954543  0.7757598337244933  0.0509788206235749
 
  0.00000000E+00  0.00000000E+00  0.00000000E+00
  0.00000000E+00  0.00000000E+00  0.00000000E+00
  0.00000000E+00  0.00000000E+00  0.00000000E+00
  0.00000000E+00  0.00000000E+00  0.00000000E+00
  0.00000000E+00  0.00000000E+00  0.00000000E+00
  0.00000000E+00  0.00000000E+00  0.00000000E+00
  0.00000000E+00  0.00000000E+00  0.00000000E+00
  0.00000000E+00  0.00000000E+00  0.00000000E+00
  0.00000000E+00  0.00000000E+00  0.00000000E+00
  0.00000000E+00  0.00000000E+00  0.00000000E+00
  0.00000000E+00  0.00000000E+00  0.00000000E+00
  0.00000000E+00  0.00000000E+00  0.00000000E+00
  0.00000000E+00  0.00000000E+00  0.00000000E+00
  0.00000000E+00  0.00000000E+00  0.00000000E+00
  0.00000000E+00  0.00000000E+00  0.00000000E+00
  0.00000000E+00  0.00000000E+00  0.00000000E+00
  0.00000000E+00  0.00000000E+00  0.00000000E+00
  0.00000000E+00  0.00000000E+00  0.00000000E+00
  0.00000000E+00  0.00000000E+00  0.00000000E+00
  0.00000000E+00  0.00000000E+00  0.00000000E+00
  0.00000000E+00  0.00000000E+00  0.00000000E+00
  0.00000000E+00  0.00000000E+00  0.00000000E+00
  0.00000000E+00  0.00000000E+00  0.00000000E+00
  0.00000000E+00  0.00000000E+00  0.00000000E+00
  0.00000000E+00  0.00000000E+00  0.00000000E+00
  0.00000000E+00  0.00000000E+00  0.00000000E+00
  0.00000000E+00  0.00000000E+00  0.00000000E+00
