crystal structure from VMoWS2 with Hexag
   1.00000000000000     
     8.3587302297666373    4.8021489156883677    0.0000000000000000
    -8.3661303119177219    4.8151370982772264    0.0000000000000000
     0.0000000000000000    0.0000000000000000   30.0000000000000000
   V    Mo   W    S 
     3     3     3    18
Direct
 -0.0219159348435320 -0.0304769502884664  0.0016849423204431
  0.3612376773531631 -0.0059054929670173  0.0018741260778287
  0.6398315471379732  0.6788541061989204 -0.0018351585051371
  0.3271278547336678  0.6599549619156265 -0.0002101985246199
  0.6889486070400402  0.3155461056741175  0.0024277836632609
  0.6652000205858128  0.0073935125165906 -0.0005452934158061
  1.0004370792554484  0.3544885189422968 -0.0008598905338661
  0.0073131225078546  0.6463226684531302  0.0007001342829202
  0.3197335251521782  0.3607586832399617 -0.0023533433253760
  0.1044918302402018  0.2171534355740168  0.9496603032542696
  0.2255230587925726  0.1125553127097007  0.0425377571598747
  0.1143467890351538  0.5590424891767936  0.9433327848720843
  0.2173071015355845  0.4481299259950154  0.0548735007140964
  0.1188678298698947  0.8905660564322458  0.9547626140111229
  0.2233465943612963  0.7846206430940412  0.0528802442667971
  0.4448714618762925  0.2233892295893292  0.9564238333225416
  0.5571653978597328  0.1065387129891335  0.0561172448446148
  0.4468739686821356  0.5670780051002153  0.9435476365063515
  0.5566939530838958  0.4473055705726793  0.0438160607498721
  0.4457334499329829  0.8944111585484291  0.9468622765005379
  0.5537636037418653  0.7787235421504601  0.0520793528625829
  0.7858284341280087  0.2211376037719255  0.9448210549799574
  0.8989179569013023  0.1127813596280524  0.0477719856145926
  0.7714890158359885  0.5545101765531821  0.9554274601584262
  0.8922433443360683  0.4435256436005491  0.0577033552043809
  0.7798117967748046  0.8851861673467302  0.9482316802411086
  0.8730253675265855  0.7646233069599071  0.0482676518971307
 
  0.00000000E+00  0.00000000E+00  0.00000000E+00
  0.00000000E+00  0.00000000E+00  0.00000000E+00
  0.00000000E+00  0.00000000E+00  0.00000000E+00
  0.00000000E+00  0.00000000E+00  0.00000000E+00
  0.00000000E+00  0.00000000E+00  0.00000000E+00
  0.00000000E+00  0.00000000E+00  0.00000000E+00
  0.00000000E+00  0.00000000E+00  0.00000000E+00
  0.00000000E+00  0.00000000E+00  0.00000000E+00
  0.00000000E+00  0.00000000E+00  0.00000000E+00
  0.00000000E+00  0.00000000E+00  0.00000000E+00
  0.00000000E+00  0.00000000E+00  0.00000000E+00
  0.00000000E+00  0.00000000E+00  0.00000000E+00
  0.00000000E+00  0.00000000E+00  0.00000000E+00
  0.00000000E+00  0.00000000E+00  0.00000000E+00
  0.00000000E+00  0.00000000E+00  0.00000000E+00
  0.00000000E+00  0.00000000E+00  0.00000000E+00
  0.00000000E+00  0.00000000E+00  0.00000000E+00
  0.00000000E+00  0.00000000E+00  0.00000000E+00
  0.00000000E+00  0.00000000E+00  0.00000000E+00
  0.00000000E+00  0.00000000E+00  0.00000000E+00
  0.00000000E+00  0.00000000E+00  0.00000000E+00
  0.00000000E+00  0.00000000E+00  0.00000000E+00
  0.00000000E+00  0.00000000E+00  0.00000000E+00
  0.00000000E+00  0.00000000E+00  0.00000000E+00
  0.00000000E+00  0.00000000E+00  0.00000000E+00
  0.00000000E+00  0.00000000E+00  0.00000000E+00
  0.00000000E+00  0.00000000E+00  0.00000000E+00
