crystal structure from VMoWS2 with Hexag
   1.00000000000000     
     8.3219611582407165    4.8325642542908680    0.0000000000000000
    -8.2942348768886269    4.7846132715625664    0.0000000000000000
     0.0000000000000000    0.0000000000000000   30.0000000000000000
   V    Mo   W    S 
     3     3     3    18
Direct
  1.0355198216844599  0.3553635148475870 -0.0015514752481433
  0.6334854727728610  0.3165561471312567  0.0019593947238619
  0.0350427863166697  0.0121538259289213 -0.0019603575750827
  0.3312296979231164 -0.0032966956850404 -0.0001889034053854
  0.3399486298149849  0.3186508437378563 -0.0004134210041022
  0.0380365228570905  0.6875478254673457 -0.0017260974000380
  0.3347340246336997  0.6861451782598363  0.0000241495414808
  0.6323442633236556 -0.0144600773571094  0.0011103876247472
  0.6257655628258855  0.6435730943310735  0.0026859806874617
  0.1093990805419433  0.2186616068380749  0.9472546618183296
  0.2183964717391282  0.1071870400335111  0.0537414275687483
  0.1152636898068723  0.5558471407270983  0.9448886538066403
  0.2265988980624869  0.4470096627888181  0.0502312309753840
  0.1134677262342192  0.8949343752844473  0.9441596254406269
  0.2277880547786164  0.7833192969969169  0.0562044006478449
  0.4496466599563852  0.2214158476106473  0.9455579072945216
  0.5559954108857059  0.1157266552592016  0.0549656641793185
  0.4320100482419953  0.5487441989138722  0.9475976379686655
  0.5527536715095158  0.4355182052447160  0.0560984284356511
  0.4394486669608459  0.8889157453898484  0.9433265319343715
  0.5501398913084209  0.7772551296968243  0.0565460780738677
  0.7795839854474051  0.2266844450040257  0.9561867040339996
  0.8912992458766152  0.1129640249123405  0.0419599365356789
  0.7762216497904697  0.5533657313513135  0.9570570035159389
  0.8879190631689960  0.4419058204072199  0.0430908302253362
  0.7789717527460568  0.8868951161877298  0.9567915308814385
  0.8872037042288832  0.7796307541692442  0.0444019879188346
 
  0.00000000E+00  0.00000000E+00  0.00000000E+00
  0.00000000E+00  0.00000000E+00  0.00000000E+00
  0.00000000E+00  0.00000000E+00  0.00000000E+00
  0.00000000E+00  0.00000000E+00  0.00000000E+00
  0.00000000E+00  0.00000000E+00  0.00000000E+00
  0.00000000E+00  0.00000000E+00  0.00000000E+00
  0.00000000E+00  0.00000000E+00  0.00000000E+00
  0.00000000E+00  0.00000000E+00  0.00000000E+00
  0.00000000E+00  0.00000000E+00  0.00000000E+00
  0.00000000E+00  0.00000000E+00  0.00000000E+00
  0.00000000E+00  0.00000000E+00  0.00000000E+00
  0.00000000E+00  0.00000000E+00  0.00000000E+00
  0.00000000E+00  0.00000000E+00  0.00000000E+00
  0.00000000E+00  0.00000000E+00  0.00000000E+00
  0.00000000E+00  0.00000000E+00  0.00000000E+00
  0.00000000E+00  0.00000000E+00  0.00000000E+00
  0.00000000E+00  0.00000000E+00  0.00000000E+00
  0.00000000E+00  0.00000000E+00  0.00000000E+00
  0.00000000E+00  0.00000000E+00  0.00000000E+00
  0.00000000E+00  0.00000000E+00  0.00000000E+00
  0.00000000E+00  0.00000000E+00  0.00000000E+00
  0.00000000E+00  0.00000000E+00  0.00000000E+00
  0.00000000E+00  0.00000000E+00  0.00000000E+00
  0.00000000E+00  0.00000000E+00  0.00000000E+00
  0.00000000E+00  0.00000000E+00  0.00000000E+00
  0.00000000E+00  0.00000000E+00  0.00000000E+00
  0.00000000E+00  0.00000000E+00  0.00000000E+00
