crystal structure from VMoWS2 with Hexag
   1.00000000000000     
     8.2665590808009046    4.7842064685796721    0.0000000000000000
    -8.2849089590637579    4.8159443258477292    0.0000000000000000
     0.0000000000000000    0.0000000000000000   30.0000000000000000
   V    Mo   W    S 
     3     3     3    18
Direct
  0.3452759469229352  0.3517647149684232  0.0004850952219813
  0.6643031961959195  0.0039477172133095  0.0003360498025084
  0.3397369499381004 -0.0067600882145791 -0.0001008997867174
  0.6650095923892793  0.6501677499399429 -0.0004939633517504
  0.6862474638616558  0.3549453979732549  0.0001042406362367
  0.3326118661529306  0.6568675417614508  0.0002433529246169
 -0.0096881296077989  0.0000293887524866 -0.0006003192364459
  0.9986665472070448  0.3477087117105739  0.0004267229523261
 -0.0189441991130657  0.6436159490708263 -0.0005200746371002
  0.1164906235750590  0.2283497411549556  0.9509211892673836
  0.2264765893424122  0.1142935473494509  0.0474577435458614
  0.1108940331611571  0.5567900900549123  0.9460852928277322
  0.2232924139602408  0.4395462469481376  0.0528544870100314
  0.1123206934140797  0.8869291698612733  0.9513391846775177
  0.2201234188637290  0.7783945803705004  0.0495204910836867
  0.4429451550922162  0.2219903222184063  0.9526610303196147
  0.5541730523509515  0.1098681103352851  0.0493585578386500
  0.4420885097332591  0.5477918210060135  0.9466268730739688
  0.5504332031465178  0.4394481163252957  0.0533589930993271
  0.4480148528809306  0.8922527823787879  0.9495755818792422
  0.5603412637779748  0.7814961384880043  0.0494990905273050
  0.7769587404553455  0.2204869428549819  0.9486757173891995
  0.8819963372658424  0.1112318487767612  0.0511001051926509
  0.7785547172088201  0.5560098435149537  0.9431512120063887
  0.8909252535898347  0.4459590833341236  0.0569439950867337
  0.7697797762255952  0.8889042796335477  0.9492473690928644
  0.8891865854460157  0.7761847056964807  0.0517427807561748
 
  0.00000000E+00  0.00000000E+00  0.00000000E+00
  0.00000000E+00  0.00000000E+00  0.00000000E+00
  0.00000000E+00  0.00000000E+00  0.00000000E+00
  0.00000000E+00  0.00000000E+00  0.00000000E+00
  0.00000000E+00  0.00000000E+00  0.00000000E+00
  0.00000000E+00  0.00000000E+00  0.00000000E+00
  0.00000000E+00  0.00000000E+00  0.00000000E+00
  0.00000000E+00  0.00000000E+00  0.00000000E+00
  0.00000000E+00  0.00000000E+00  0.00000000E+00
  0.00000000E+00  0.00000000E+00  0.00000000E+00
  0.00000000E+00  0.00000000E+00  0.00000000E+00
  0.00000000E+00  0.00000000E+00  0.00000000E+00
  0.00000000E+00  0.00000000E+00  0.00000000E+00
  0.00000000E+00  0.00000000E+00  0.00000000E+00
  0.00000000E+00  0.00000000E+00  0.00000000E+00
  0.00000000E+00  0.00000000E+00  0.00000000E+00
  0.00000000E+00  0.00000000E+00  0.00000000E+00
  0.00000000E+00  0.00000000E+00  0.00000000E+00
  0.00000000E+00  0.00000000E+00  0.00000000E+00
  0.00000000E+00  0.00000000E+00  0.00000000E+00
  0.00000000E+00  0.00000000E+00  0.00000000E+00
  0.00000000E+00  0.00000000E+00  0.00000000E+00
  0.00000000E+00  0.00000000E+00  0.00000000E+00
  0.00000000E+00  0.00000000E+00  0.00000000E+00
  0.00000000E+00  0.00000000E+00  0.00000000E+00
  0.00000000E+00  0.00000000E+00  0.00000000E+00
  0.00000000E+00  0.00000000E+00  0.00000000E+00
