crystal structure from VMoWS2 with Hexag
   1.00000000000000     
     8.3907899660519814    4.8474050715668602    0.0000000000000000
    -8.3692028848790674    4.8103551604582924    0.0000000000000000
     0.0000000000000000    0.0000000000000000   30.0000000000000000
   V    Mo   W    S 
     3     3     3    18
Direct
  0.3168065412251979  0.6780602414695773 -0.0001815073099819
  0.6468095602539005  0.0155485383582755  0.0003651075659970
  0.3122380300011540 -0.0083213380137790  0.0005583064424804
 -0.0073128065809604  0.6603815764408910  0.0001856591627325
  0.0187524071773862 -0.0162774089071365 -0.0000965051671272
  0.7045393541911308  0.3539427993044322 -0.0006913146218781
  0.9913062721517242  0.3479910443087857  0.0003592257696701
  0.2937893358659492  0.3016597190474165  0.0016834371121205
  0.7055529893856777  0.6715213628691815 -0.0015798515452183
  0.0975620156663301  0.2113415592984958  0.9481136466477871
  0.2221718471347775  0.1023629568426858  0.0562331140788835
  0.1165894791992059  0.5558524245629598  0.9467634212926925
  0.2213442343765695  0.4496972171196482  0.0509085569802054
  0.1195584943034870  0.8836071808735606  0.9456535561174885
  0.2285776447969929  0.7832805032436916  0.0522046114916903
  0.4467235596268343  0.2241405510131453  0.9558988516519462
  0.5527487504898553  0.1184866537784032  0.0494031805815046
  0.4443114149995262  0.5543801015626072  0.9582630336169230
  0.5530762134841792  0.4432339886481236  0.0463879161640504
  0.4390285342579330  0.8924992019895003  0.9503956871204438
  0.5578544241737134  0.7796126829648237  0.0425137841352336
  0.7772621533568376  0.2181580737366800  0.9463985239429008
  0.8831100942450787  0.1042125444265533  0.0434939890668888
  0.7869870945819148  0.5554856737659627  0.9425284668939740
  0.8972001187344529  0.4508858905981270  0.0568429293102953
  0.7769069654055842  0.8904217774853782  0.9514095667369874
  0.8947197309325478  0.7760489366895843  0.0559845059612994
 
  0.00000000E+00  0.00000000E+00  0.00000000E+00
  0.00000000E+00  0.00000000E+00  0.00000000E+00
  0.00000000E+00  0.00000000E+00  0.00000000E+00
  0.00000000E+00  0.00000000E+00  0.00000000E+00
  0.00000000E+00  0.00000000E+00  0.00000000E+00
  0.00000000E+00  0.00000000E+00  0.00000000E+00
  0.00000000E+00  0.00000000E+00  0.00000000E+00
  0.00000000E+00  0.00000000E+00  0.00000000E+00
  0.00000000E+00  0.00000000E+00  0.00000000E+00
  0.00000000E+00  0.00000000E+00  0.00000000E+00
  0.00000000E+00  0.00000000E+00  0.00000000E+00
  0.00000000E+00  0.00000000E+00  0.00000000E+00
  0.00000000E+00  0.00000000E+00  0.00000000E+00
  0.00000000E+00  0.00000000E+00  0.00000000E+00
  0.00000000E+00  0.00000000E+00  0.00000000E+00
  0.00000000E+00  0.00000000E+00  0.00000000E+00
  0.00000000E+00  0.00000000E+00  0.00000000E+00
  0.00000000E+00  0.00000000E+00  0.00000000E+00
  0.00000000E+00  0.00000000E+00  0.00000000E+00
  0.00000000E+00  0.00000000E+00  0.00000000E+00
  0.00000000E+00  0.00000000E+00  0.00000000E+00
  0.00000000E+00  0.00000000E+00  0.00000000E+00
  0.00000000E+00  0.00000000E+00  0.00000000E+00
  0.00000000E+00  0.00000000E+00  0.00000000E+00
  0.00000000E+00  0.00000000E+00  0.00000000E+00
  0.00000000E+00  0.00000000E+00  0.00000000E+00
  0.00000000E+00  0.00000000E+00  0.00000000E+00
