crystal structure from VMoWS2 with Hexag
   1.00000000000000     
     8.2978736262879771    4.8171923245634023    0.0000000000000000
    -8.2724096498759057    4.7730974019593502    0.0000000000000000
     0.0000000000000000    0.0000000000000000   30.0000000000000000
   V    Mo   W    S 
     3     3     3    18
Direct
  0.0017369956477849  0.0005222152709586 -0.0002469465012532
  0.6568616999708085  0.6649840366738581  0.0001484818437848
  0.9928094159717070  0.3270940335815986  0.0004927337256829
  0.6473073845351760  0.0013837146589897  0.0002541466755231
  0.3535952460002538  0.0153397096983213 -0.0001881342165660
  0.3473677025756011  0.3329278843668871  0.0000971669965137
  0.0038986737965147  0.6710362536342724 -0.0006938584439339
  0.3484593257120011  0.6757950981841064 -0.0001681528776200
  0.6469840341679767  0.3104930039429458  0.0003054752846963
  0.1073788951233511  0.2201168091054322  0.9508111531145695
  0.2185053483875011  0.1088294132871451  0.0507924786447390
  0.1114395818829788  0.5495469403658608  0.9499037004933580
  0.2193572261803285  0.4428502659281588  0.0489247414694472
  0.1120813709437657  0.8940710315752923  0.9496875524660766
  0.2243403894353904  0.7795128464342034  0.0509822783950205
  0.4456413720169023  0.2230698112877858  0.9441494393489646
  0.5539323187445292  0.1115768388142364  0.0573231688893341
  0.4524504886462661  0.5599112492355667  0.9475804025076078
  0.5620492536389601  0.4493181221060875  0.0523969898085648
  0.4411930767606987  0.8878880460483933  0.9450182578869629
  0.5594876789082320  0.7764828019676269  0.0527704003358866
  0.7788060244547903  0.2231324233211293  0.9480403949536316
  0.8900870084726703  0.1108708303494059  0.0489548654360433
  0.7725388308903305  0.5531812461351945  0.9513329431675229
  0.8874860719868536  0.4399800959356787  0.0496326238863008
  0.7766437196496119  0.8884177110523062  0.9522284459140439
  0.8857753189359954  0.7798820205161473  0.0494691499950855
 
  0.00000000E+00  0.00000000E+00  0.00000000E+00
  0.00000000E+00  0.00000000E+00  0.00000000E+00
  0.00000000E+00  0.00000000E+00  0.00000000E+00
  0.00000000E+00  0.00000000E+00  0.00000000E+00
  0.00000000E+00  0.00000000E+00  0.00000000E+00
  0.00000000E+00  0.00000000E+00  0.00000000E+00
  0.00000000E+00  0.00000000E+00  0.00000000E+00
  0.00000000E+00  0.00000000E+00  0.00000000E+00
  0.00000000E+00  0.00000000E+00  0.00000000E+00
  0.00000000E+00  0.00000000E+00  0.00000000E+00
  0.00000000E+00  0.00000000E+00  0.00000000E+00
  0.00000000E+00  0.00000000E+00  0.00000000E+00
  0.00000000E+00  0.00000000E+00  0.00000000E+00
  0.00000000E+00  0.00000000E+00  0.00000000E+00
  0.00000000E+00  0.00000000E+00  0.00000000E+00
  0.00000000E+00  0.00000000E+00  0.00000000E+00
  0.00000000E+00  0.00000000E+00  0.00000000E+00
  0.00000000E+00  0.00000000E+00  0.00000000E+00
  0.00000000E+00  0.00000000E+00  0.00000000E+00
  0.00000000E+00  0.00000000E+00  0.00000000E+00
  0.00000000E+00  0.00000000E+00  0.00000000E+00
  0.00000000E+00  0.00000000E+00  0.00000000E+00
  0.00000000E+00  0.00000000E+00  0.00000000E+00
  0.00000000E+00  0.00000000E+00  0.00000000E+00
  0.00000000E+00  0.00000000E+00  0.00000000E+00
  0.00000000E+00  0.00000000E+00  0.00000000E+00
  0.00000000E+00  0.00000000E+00  0.00000000E+00
