crystal structure from VMoWS2 with Hexag
   1.00000000000000     
     8.3243835113293887    4.8315657323099126    0.0000000000000000
    -8.3047571616917502    4.7976786012257850    0.0000000000000000
     0.0000000000000000    0.0000000000000000   30.0000000000000000
   V    Mo   W    S 
     3     3     3    18
Direct
  0.0389404853677517  0.6899964518933532 -0.0028028659855863
  0.6291067872024823 -0.0255331061202907  0.0024319316870232
  0.0312412959486848  0.0144373002304074 -0.0014482472030565
  0.3353100633189210  0.0213297664189021 -0.0000485188445541
  0.3391179564223647  0.3365043861966454 -0.0001679603225850
  0.6302750103292962  0.6459063883258356  0.0017749926154394
  1.0346965722190546  0.3464329402443819 -0.0010999780306127
  0.3356058968852696  0.6476396190659790 -0.0002089737994135
  0.6309001759550962  0.3242884803089742  0.0014972650704233
  0.1104139670340922  0.2168189318505247  0.9453941054901336
  0.2183300356350060  0.1115261371155117  0.0539818270265416
  0.1147712488852712  0.5584985468430463  0.9453985134075574
  0.2269917028655931  0.4443882599181587  0.0561790126681966
  0.1121728085504882  0.8929501602691621  0.9459131453684533
  0.2276535690798665  0.7811117310654582  0.0496145938886621
  0.4420388020970957  0.2243996907589814  0.9435074646920618
  0.5547529788234137  0.1104759254361589  0.0542961212343697
  0.4393272357892722  0.5502109217464470  0.9434913369046550
  0.5512082417935112  0.4419734535209641  0.0576166182409004
  0.4401217961810762  0.8855439972721095  0.9498004874002006
  0.5503822341007450  0.7765537396646242  0.0557026114782408
  0.7754194392239779  0.2177947131371621  0.9579585254159040
  0.8864668676745403  0.1061912035447056  0.0441527933008819
  0.7823021648242883  0.5585784792287933  0.9545540232159598
  0.8910196869289660  0.4507953645175025  0.0427883719652106
  0.7775066891324924  0.8914149355742067  0.9572841260307611
  0.8921407411683565  0.7779860354498822  0.0424385762842188
 
  0.00000000E+00  0.00000000E+00  0.00000000E+00
  0.00000000E+00  0.00000000E+00  0.00000000E+00
  0.00000000E+00  0.00000000E+00  0.00000000E+00
  0.00000000E+00  0.00000000E+00  0.00000000E+00
  0.00000000E+00  0.00000000E+00  0.00000000E+00
  0.00000000E+00  0.00000000E+00  0.00000000E+00
  0.00000000E+00  0.00000000E+00  0.00000000E+00
  0.00000000E+00  0.00000000E+00  0.00000000E+00
  0.00000000E+00  0.00000000E+00  0.00000000E+00
  0.00000000E+00  0.00000000E+00  0.00000000E+00
  0.00000000E+00  0.00000000E+00  0.00000000E+00
  0.00000000E+00  0.00000000E+00  0.00000000E+00
  0.00000000E+00  0.00000000E+00  0.00000000E+00
  0.00000000E+00  0.00000000E+00  0.00000000E+00
  0.00000000E+00  0.00000000E+00  0.00000000E+00
  0.00000000E+00  0.00000000E+00  0.00000000E+00
  0.00000000E+00  0.00000000E+00  0.00000000E+00
  0.00000000E+00  0.00000000E+00  0.00000000E+00
  0.00000000E+00  0.00000000E+00  0.00000000E+00
  0.00000000E+00  0.00000000E+00  0.00000000E+00
  0.00000000E+00  0.00000000E+00  0.00000000E+00
  0.00000000E+00  0.00000000E+00  0.00000000E+00
  0.00000000E+00  0.00000000E+00  0.00000000E+00
  0.00000000E+00  0.00000000E+00  0.00000000E+00
  0.00000000E+00  0.00000000E+00  0.00000000E+00
  0.00000000E+00  0.00000000E+00  0.00000000E+00
  0.00000000E+00  0.00000000E+00  0.00000000E+00
