crystal structure from VMoWS2 with Hexag
   1.00000000000000     
     8.3677465195351814    4.8652965394364864    0.0000000000000000
    -8.3412731952085597    4.8196911555602266    0.0000000000000000
     0.0000000000000000    0.0000000000000000   30.0000000000000000
   V    Mo   W    S 
     3     3     3    18
Direct
  0.3500338680116258  0.0088661451215689 -0.0030290007302294
  0.3011067616423844  0.6494998054010965  0.0019879282962757
  0.6828827885413451  0.0290385159480277  0.0005369074772553
  0.9978992138796523  0.3260771505043611  0.0000959160545937
  0.6978293795292108  0.3494378602304640 -0.0007357414036671
 -0.0046184427293337  0.0210832023464717  0.0003826730479667
 -0.0168787020523514  0.6376498615983001  0.0002159651578703
  0.2925842566377034  0.3164106826399894  0.0015495075219581
  0.7034332171704827  0.6684797271423772 -0.0017583081242578
  0.1047737415274029  0.2211467038450799  0.9438604635640949
  0.2195307212937523  0.1060445052855334  0.0518758758723828
  0.1139561518466344  0.5549343765526262  0.9468148394972349
  0.2169620808783961  0.4451580611017295  0.0549138817075886
  0.1120323604246038  0.8876245923234110  0.9558516590342218
  0.2234238901167180  0.7795363307883901  0.0491854942157624
  0.4441392525778691  0.2284084266286001  0.9531890539923916
  0.5560512487028166  0.1125614158280461  0.0496262066133507
  0.4439944689991407  0.5561941180434945  0.9557006400048839
  0.5495924131362865  0.4414737688966272  0.0454121950855245
  0.4455924599025007  0.8869698146249562  0.9539468795932540
  0.5559529012080177  0.7772514977605988  0.0403552571165654
  0.7766087470311923  0.2183661084079377  0.9454789761162773
  0.8789906719684000  0.1089728323524901  0.0547079443677510
  0.7872647604750093  0.5546515152310665  0.9418689933556398
  0.8921530517806505  0.4402793927995075  0.0564279292162085
  0.7735985610933521  0.8920180830564874  0.9492858143140716
  0.8993246298435050  0.7800799590183609  0.0522519482350150
 
  0.00000000E+00  0.00000000E+00  0.00000000E+00
  0.00000000E+00  0.00000000E+00  0.00000000E+00
  0.00000000E+00  0.00000000E+00  0.00000000E+00
  0.00000000E+00  0.00000000E+00  0.00000000E+00
  0.00000000E+00  0.00000000E+00  0.00000000E+00
  0.00000000E+00  0.00000000E+00  0.00000000E+00
  0.00000000E+00  0.00000000E+00  0.00000000E+00
  0.00000000E+00  0.00000000E+00  0.00000000E+00
  0.00000000E+00  0.00000000E+00  0.00000000E+00
  0.00000000E+00  0.00000000E+00  0.00000000E+00
  0.00000000E+00  0.00000000E+00  0.00000000E+00
  0.00000000E+00  0.00000000E+00  0.00000000E+00
  0.00000000E+00  0.00000000E+00  0.00000000E+00
  0.00000000E+00  0.00000000E+00  0.00000000E+00
  0.00000000E+00  0.00000000E+00  0.00000000E+00
  0.00000000E+00  0.00000000E+00  0.00000000E+00
  0.00000000E+00  0.00000000E+00  0.00000000E+00
  0.00000000E+00  0.00000000E+00  0.00000000E+00
  0.00000000E+00  0.00000000E+00  0.00000000E+00
  0.00000000E+00  0.00000000E+00  0.00000000E+00
  0.00000000E+00  0.00000000E+00  0.00000000E+00
  0.00000000E+00  0.00000000E+00  0.00000000E+00
  0.00000000E+00  0.00000000E+00  0.00000000E+00
  0.00000000E+00  0.00000000E+00  0.00000000E+00
  0.00000000E+00  0.00000000E+00  0.00000000E+00
  0.00000000E+00  0.00000000E+00  0.00000000E+00
  0.00000000E+00  0.00000000E+00  0.00000000E+00
