crystal structure from VMoWS2 with Hexag
   1.00000000000000     
     8.3364558008721836    4.8114561662353594    0.0000000000000000
    -8.3383736714630849    4.8147793430156751    0.0000000000000000
     0.0000000000000000    0.0000000000000000   30.0000000000000000
   V    Mo   W    S 
     3     3     3    18
Direct
  0.6839939529526670 -0.0181596536147511  0.0002255193672058
  0.3160024937421144  0.2978980702072687 -0.0001328569492972
 -0.0009709261202470  0.6971110317775181 -0.0000525937417186
  0.0000296066525195 -0.0061022382025607  0.0000261985432062
  0.6814114272925728  0.6877095432511258  0.0005274996203528
  0.3181010181561150  0.0063389896531380 -0.0004962149065502
  1.0000737279020018  0.2966286961172406  0.0000022628319125
  0.3645070184558034  0.7020200104239461  0.0000358482884568
  0.6362234327646884  0.3390565452868678 -0.0001525075577167
  0.1175026286005706  0.2162486981982306  0.9450387605728344
  0.2180776465766679  0.1095551948654168  0.0549488814837551
  0.1109805131321729  0.5573156094934045  0.9579422453993137
  0.2259349860591719  0.4427982929742155  0.0470474333320333
  0.1092339235097184  0.8842268751328071  0.9448065538687822
  0.2169111369136955  0.7768755447155202  0.0505773113881088
  0.4366627928673334  0.2240958010750043  0.9445179269557323
  0.5610299268206336  0.1100451650174037  0.0450514624588833
  0.4389991528676515  0.5487360575208530  0.9547293312156276
  0.5380499390854375  0.4440112790614741  0.0513087888938532
  0.4618122118287548  0.9057517603995671  0.9488045402285228
  0.5633086224164714  0.7875681625431685  0.0555546807938490
  0.7737877344274267  0.2168900611575202  0.9530663891853365
  0.8825113088051230  0.0989497765519166  0.0549993238301633
  0.7828164796980889  0.5601059267090227  0.9491105417942431
  0.8889100699239880  0.4461617835972699  0.0421463208042711
  0.7817741557552890  0.8913464697809201  0.9451264362009256
  0.8905394723505532  0.7750309997840642  0.0552398152979049
 
  0.00000000E+00  0.00000000E+00  0.00000000E+00
  0.00000000E+00  0.00000000E+00  0.00000000E+00
  0.00000000E+00  0.00000000E+00  0.00000000E+00
  0.00000000E+00  0.00000000E+00  0.00000000E+00
  0.00000000E+00  0.00000000E+00  0.00000000E+00
  0.00000000E+00  0.00000000E+00  0.00000000E+00
  0.00000000E+00  0.00000000E+00  0.00000000E+00
  0.00000000E+00  0.00000000E+00  0.00000000E+00
  0.00000000E+00  0.00000000E+00  0.00000000E+00
  0.00000000E+00  0.00000000E+00  0.00000000E+00
  0.00000000E+00  0.00000000E+00  0.00000000E+00
  0.00000000E+00  0.00000000E+00  0.00000000E+00
  0.00000000E+00  0.00000000E+00  0.00000000E+00
  0.00000000E+00  0.00000000E+00  0.00000000E+00
  0.00000000E+00  0.00000000E+00  0.00000000E+00
  0.00000000E+00  0.00000000E+00  0.00000000E+00
  0.00000000E+00  0.00000000E+00  0.00000000E+00
  0.00000000E+00  0.00000000E+00  0.00000000E+00
  0.00000000E+00  0.00000000E+00  0.00000000E+00
  0.00000000E+00  0.00000000E+00  0.00000000E+00
  0.00000000E+00  0.00000000E+00  0.00000000E+00
  0.00000000E+00  0.00000000E+00  0.00000000E+00
  0.00000000E+00  0.00000000E+00  0.00000000E+00
  0.00000000E+00  0.00000000E+00  0.00000000E+00
  0.00000000E+00  0.00000000E+00  0.00000000E+00
  0.00000000E+00  0.00000000E+00  0.00000000E+00
  0.00000000E+00  0.00000000E+00  0.00000000E+00
