crystal structure from VMoWS2 with Hexag
   1.00000000000000     
     8.3321416647777813    4.8225949613827215    0.0000000000000000
    -8.3548823121406279    4.8618123563485520    0.0000000000000000
     0.0000000000000000    0.0000000000000000   30.0000000000000000
   V    Mo   W    S 
     3     3     3    18
Direct
  0.6628878468537759 -0.0014123289975068  0.0025324911734116
  0.6967570557913350  0.3478441298785430 -0.0008700686743152
  0.3171630356692690 -0.0310243585216686 -0.0015335992842778
  0.6885966614154810  0.6654898068911808 -0.0003065400641512
 -0.0079492262203596  0.6644209659164402 -0.0000239031313585
  1.0195382663990595  0.3681764966336027  0.0008388147000626
 -0.0170492447340376 -0.0400644803149986 -0.0012733931769543
  0.3346999047463549  0.3704171542277444  0.0015563007534192
  0.3070779744741421  0.6527850966707516 -0.0003942049206016
  0.1080968474832809  0.2169560116949740  0.9544791099212583
  0.2228749962559834  0.1112625166195756  0.0444991623006502
  0.1083155528533870  0.5608828174728485  0.9435918252433054
  0.2221359486156579  0.4552427240803960  0.0581008958478692
  0.1126239431182419  0.8848455442153709  0.9453765747960231
  0.2217572385433973  0.7810715522499555  0.0532632790823921
  0.4444954942655541  0.2234251278391390  0.9595626518821020
  0.5539839093061916  0.1108398383254614  0.0457052389493057
  0.4476868079570436  0.5670858969975697  0.9476995760407755
  0.5584332589183694  0.4395995171085658  0.0503231958287734
  0.4463044801178229  0.8916673673597039  0.9498071459634991
  0.5542509801686000  0.7763142771068094  0.0464664308190581
  0.7810666294312223  0.2231339157728902  0.9512775046846073
  0.8932419619458001  0.1121106002089471  0.0452287017298994
  0.7754899086748774  0.5462373364592826  0.9455915393338887
  0.8845411665492023  0.4428735806462710  0.0545168494160272
  0.7733133155760339  0.8862520899843715  0.9476064006840140
  0.8878797392612863  0.7717812569513872  0.0563779193013024
 
  0.00000000E+00  0.00000000E+00  0.00000000E+00
  0.00000000E+00  0.00000000E+00  0.00000000E+00
  0.00000000E+00  0.00000000E+00  0.00000000E+00
  0.00000000E+00  0.00000000E+00  0.00000000E+00
  0.00000000E+00  0.00000000E+00  0.00000000E+00
  0.00000000E+00  0.00000000E+00  0.00000000E+00
  0.00000000E+00  0.00000000E+00  0.00000000E+00
  0.00000000E+00  0.00000000E+00  0.00000000E+00
  0.00000000E+00  0.00000000E+00  0.00000000E+00
  0.00000000E+00  0.00000000E+00  0.00000000E+00
  0.00000000E+00  0.00000000E+00  0.00000000E+00
  0.00000000E+00  0.00000000E+00  0.00000000E+00
  0.00000000E+00  0.00000000E+00  0.00000000E+00
  0.00000000E+00  0.00000000E+00  0.00000000E+00
  0.00000000E+00  0.00000000E+00  0.00000000E+00
  0.00000000E+00  0.00000000E+00  0.00000000E+00
  0.00000000E+00  0.00000000E+00  0.00000000E+00
  0.00000000E+00  0.00000000E+00  0.00000000E+00
  0.00000000E+00  0.00000000E+00  0.00000000E+00
  0.00000000E+00  0.00000000E+00  0.00000000E+00
  0.00000000E+00  0.00000000E+00  0.00000000E+00
  0.00000000E+00  0.00000000E+00  0.00000000E+00
  0.00000000E+00  0.00000000E+00  0.00000000E+00
  0.00000000E+00  0.00000000E+00  0.00000000E+00
  0.00000000E+00  0.00000000E+00  0.00000000E+00
  0.00000000E+00  0.00000000E+00  0.00000000E+00
  0.00000000E+00  0.00000000E+00  0.00000000E+00
