crystal structure from VMoWS2 with Hexag
   1.00000000000000     
     8.3933305020318283    4.8152115616125082    0.0000000000000000
    -8.3926575187698447    4.8138184558275334    0.0000000000000000
     0.0000000000000000    0.0000000000000000   30.0000000000000000
   V    Mo   W    S 
     3     3     3    18
Direct
 -0.0143324602905315  0.6939809527901648 -0.0020671566776847
  0.3088780599171707  0.0126419348326068 -0.0021684820613081
  0.6768695433987346 -0.0122485638193849 -0.0000394850606315
 -0.0044075765765013  0.0047864519496752 -0.0009230555816858
  0.6748425663167322  0.6986675882665123 -0.0009540660041410
  0.3514564308750922  0.6459512381187603  0.0028388686849781
  1.0119742511857293  0.3198196189610580  0.0002389843199263
  0.3051742496953679  0.3269382908569893 -0.0008496426074766
  0.6888434643379741  0.3104247671221389  0.0045238046290865
  0.1107565465423543  0.2216503115277691  0.9425318150375704
  0.2182787808180718  0.1117977809625021  0.0524671450004781
  0.1088415488530308  0.5614396779644906  0.9568208428936112
  0.2209328962643655  0.4376300374221906  0.0569972946530943
  0.1075817553956257  0.8922586979483004  0.9461594447900386
  0.2197640942832170  0.7801221350592040  0.0426653001605522
  0.4501832876810806  0.2238488354572984  0.9521651503458816
  0.5441336556210027  0.0930208680733596  0.0488364654126936
  0.4494176990772171  0.5508904450288888  0.9465247262894653
  0.5587921525566896  0.4410956263782722  0.0415541318981726
  0.4394795488759800  0.8889949625095074  0.9575249076679960
  0.5605922451623880  0.7843792307100539  0.0553697567522796
  0.7803562289908738  0.2109091613198838  0.9482770194256218
  0.8813456458668926  0.1091027534576445  0.0535899355912883
  0.7782525465079061  0.5528608127921057  0.9519830749573661
  0.9065002109334757  0.4590927852265991  0.0493446739212552
  0.7756678913065679  0.8950366891741610  0.9438900537633804
  0.8880391898405051  0.7831213633868324  0.0526983909981766
 
  0.00000000E+00  0.00000000E+00  0.00000000E+00
  0.00000000E+00  0.00000000E+00  0.00000000E+00
  0.00000000E+00  0.00000000E+00  0.00000000E+00
  0.00000000E+00  0.00000000E+00  0.00000000E+00
  0.00000000E+00  0.00000000E+00  0.00000000E+00
  0.00000000E+00  0.00000000E+00  0.00000000E+00
  0.00000000E+00  0.00000000E+00  0.00000000E+00
  0.00000000E+00  0.00000000E+00  0.00000000E+00
  0.00000000E+00  0.00000000E+00  0.00000000E+00
  0.00000000E+00  0.00000000E+00  0.00000000E+00
  0.00000000E+00  0.00000000E+00  0.00000000E+00
  0.00000000E+00  0.00000000E+00  0.00000000E+00
  0.00000000E+00  0.00000000E+00  0.00000000E+00
  0.00000000E+00  0.00000000E+00  0.00000000E+00
  0.00000000E+00  0.00000000E+00  0.00000000E+00
  0.00000000E+00  0.00000000E+00  0.00000000E+00
  0.00000000E+00  0.00000000E+00  0.00000000E+00
  0.00000000E+00  0.00000000E+00  0.00000000E+00
  0.00000000E+00  0.00000000E+00  0.00000000E+00
  0.00000000E+00  0.00000000E+00  0.00000000E+00
  0.00000000E+00  0.00000000E+00  0.00000000E+00
  0.00000000E+00  0.00000000E+00  0.00000000E+00
  0.00000000E+00  0.00000000E+00  0.00000000E+00
  0.00000000E+00  0.00000000E+00  0.00000000E+00
  0.00000000E+00  0.00000000E+00  0.00000000E+00
  0.00000000E+00  0.00000000E+00  0.00000000E+00
  0.00000000E+00  0.00000000E+00  0.00000000E+00
