crystal structure from VMoWS2 with Hexag
   1.00000000000000     
     8.3138626430401157    4.7616934167613811    0.0000000000000000
    -8.3548392732305583    4.8327506928067203    0.0000000000000000
     0.0000000000000000    0.0000000000000000   30.0000000000000000
   V    Mo   W    S 
     3     3     3    18
Direct
  0.3475303020947378  0.3203509452307119  0.0005796580754501
  0.6523356637815424 -0.0277679145281796 -0.0006513938097951
 -0.0010677684784581 -0.0153464302907495 -0.0004341195780491
  0.9998707058267190  0.3636201483435162  0.0002432771538393
  0.3524668213057827  0.0208928766546328  0.0001252621006234
  0.6610738609641508  0.6676686583673632  0.0000361477142732
 -0.0092057728441984  0.6446313813141046 -0.0001168552991962
  0.3232515718394429  0.6702805827827776 -0.0000659957830260
  0.6728149249924403  0.3446945829692363  0.0002516715330944
  0.1108290594272305  0.2216699194564195  0.9556785487764123
  0.2210760605023170  0.1123753771430248  0.0507598733797540
  0.1118207588676140  0.5621924632583052  0.9436610657378462
  0.2258771485008527  0.4424740453430297  0.0490128816585494
  0.1122909587966988  0.8890113785547437  0.9504169831225917
  0.2195174368476989  0.7827734443948817  0.0509887383861116
  0.4494955933741863  0.2299165383308135  0.9464047039542050
  0.5671768617382674  0.1106792269997652  0.0506617260253671
  0.4343880318034528  0.5450436194686867  0.9505269787253153
  0.5495296311013056  0.4406462919718893  0.0529991321445000
  0.4504241904350695  0.8914035634881377  0.9472514212192464
  0.5509613698808951  0.7784935012892503  0.0524156284548063
  0.7749803918830249  0.2167018404871885  0.9510349178816716
  0.8889243469292091  0.1098813524549740  0.0444893395039316
  0.7778659773841159  0.5587713019906482  0.9466776757081845
  0.8858294392381838  0.4476145278068686  0.0569010831263971
  0.7791045103953185  0.8907390028983933  0.9490793348253518
  0.8890523768493654  0.7788022272971060  0.0510722144624964
 
  0.00000000E+00  0.00000000E+00  0.00000000E+00
  0.00000000E+00  0.00000000E+00  0.00000000E+00
  0.00000000E+00  0.00000000E+00  0.00000000E+00
  0.00000000E+00  0.00000000E+00  0.00000000E+00
  0.00000000E+00  0.00000000E+00  0.00000000E+00
  0.00000000E+00  0.00000000E+00  0.00000000E+00
  0.00000000E+00  0.00000000E+00  0.00000000E+00
  0.00000000E+00  0.00000000E+00  0.00000000E+00
  0.00000000E+00  0.00000000E+00  0.00000000E+00
  0.00000000E+00  0.00000000E+00  0.00000000E+00
  0.00000000E+00  0.00000000E+00  0.00000000E+00
  0.00000000E+00  0.00000000E+00  0.00000000E+00
  0.00000000E+00  0.00000000E+00  0.00000000E+00
  0.00000000E+00  0.00000000E+00  0.00000000E+00
  0.00000000E+00  0.00000000E+00  0.00000000E+00
  0.00000000E+00  0.00000000E+00  0.00000000E+00
  0.00000000E+00  0.00000000E+00  0.00000000E+00
  0.00000000E+00  0.00000000E+00  0.00000000E+00
  0.00000000E+00  0.00000000E+00  0.00000000E+00
  0.00000000E+00  0.00000000E+00  0.00000000E+00
  0.00000000E+00  0.00000000E+00  0.00000000E+00
  0.00000000E+00  0.00000000E+00  0.00000000E+00
  0.00000000E+00  0.00000000E+00  0.00000000E+00
  0.00000000E+00  0.00000000E+00  0.00000000E+00
  0.00000000E+00  0.00000000E+00  0.00000000E+00
  0.00000000E+00  0.00000000E+00  0.00000000E+00
  0.00000000E+00  0.00000000E+00  0.00000000E+00
